##TITLE=Hydrocortisone Acetate
##JCAMP-DX=4.24
##DATA TYPE=MASS SPECTRUM
##ORIGIN=Japan AIST/NIMC Database- Spectrum MS-NW-2340
##OWNER=NIST Mass Spectrometry Data Center
Collection (C) 2014 copyright by the U.S. Secretary of Commerce
on behalf of the United States of America. All rights reserved.
##CAS REGISTRY NO=50-03-3
##$NIST MASS SPEC NO=234244
##MOLFORM=C23 H32 O6
##MW=404
##$NIST SOURCE=MSDC
##XUNITS=M/Z
##YUNITS=RELATIVE INTENSITY
##XFACTOR=1
##YFACTOR=1
##FIRSTX=15
##LASTX=406
##FIRSTY=639
##MAXX=406
##MINX=15
##MAXY=9999
##MINY=10
##NPOINTS=345
##PEAK TABLE=(XY..XY)
15,639 16,60 17,389 18,949
19,10 25,20 26,90 27,649
28,1009 29,1279 30,919 31,339
32,70 36,30 38,30 39,879
40,219 41,2499 42,959 43,9999
44,289 45,809 46,10 47,10
50,60 51,269 52,169 53,1019
54,169 55,1949 56,179 57,479
58,70 59,50 60,689 61,90
62,30 63,109 64,70 65,619
66,259 67,1339 68,269 69,789
70,239 71,369 72,60 73,299
74,139 75,50 76,70 77,1579
78,439 79,2059 80,379 81,1289
82,249 83,649 84,169 85,219
86,80 87,309 88,70 89,99
90,70 91,2549 92,459 93,1599
94,529 95,1469 96,429 97,1129
98,189 99,269 100,90 101,159
102,109 103,389 104,219 105,2169
106,679 107,1619 108,649 109,1549
110,659 111,589 112,119 113,99
114,60 115,559 116,299 117,839
118,439 119,2159 120,779 121,2299
122,2099 123,3849 124,3049 125,769
126,149 127,229 128,449 129,809
130,359 131,1289 132,529 133,1369
134,809 135,1109 136,1509 137,1749
138,549 139,209 140,80 141,389
142,349 143,1039 144,579 145,1289
146,599 147,1449 148,1119 149,1059
150,349 151,229 152,209 153,219
154,129 155,549 156,419 157,899
158,459 159,1159 160,689 161,1589
162,819 163,2029 164,399 165,289
166,169 167,219 168,149 169,519
170,299 171,749 172,589 173,1169
174,799 175,919 176,449 177,389
178,189 179,219 180,99 181,259
182,179 183,489 184,359 185,789
186,499 187,779 188,499 189,759
190,309 191,419 192,249 193,249
194,129 195,299 196,189 197,519
198,469 199,729 200,449 201,409
202,309 203,439 204,249 205,249
206,129 207,299 208,159 209,549
210,229 211,649 212,409 213,739
214,439 215,609 216,239 217,209
218,99 219,119 220,90 221,199
222,209 223,409 224,269 225,1469
226,449 227,1919 228,649 229,629
230,309 231,209 232,129 233,129
234,99 235,179 236,109 237,239
238,249 239,519 240,1649 241,959
242,1189 243,629 244,209 245,299
246,159 247,249 248,109 249,189
250,159 251,299 252,189 253,459
254,229 255,369 256,449 257,299
258,429 259,249 260,369 261,259
262,109 263,169 264,80 265,379
266,239 267,759 268,419 269,359
270,249 271,259 272,149 273,199
274,1159 275,309 276,169 277,109
278,209 279,159 280,209 281,319
282,199 283,499 284,349 285,1379
286,479 287,149 288,189 289,70
290,99 291,50 292,70 293,309
294,139 295,269 296,409 297,219
298,469 299,389 300,149 301,229
302,259 303,419 304,139 305,30
306,30 307,20 308,349 309,129
310,239 311,659 312,239 313,209
314,489 315,209 316,319 317,99
318,30 319,10 320,10 321,10
322,10 323,20 324,30 325,30
326,909 327,259 328,299 329,289
330,149 331,80 332,619 333,159
334,70 335,20 338,20 339,30
340,20 341,90 342,50 343,60
344,699 345,199 346,70 347,20
353,10 354,30 355,10 356,219
357,60 358,70 359,30 360,10
362,40 363,10 368,20 369,10
370,10 371,60 372,40 373,20
374,339 375,90 376,30 386,70
387,20 402,10 404,359 405,90
406,20
##END=
