##TITLE=Phenobarbital
##JCAMP-DX=4.24
##DATA TYPE=MASS SPECTRUM
##ORIGIN=Tox21 Consortium/NIST Mass Spectrometry Data Center, 2012
##OWNER=NIST Mass Spectrometry Data Center
Collection (C) 2014 copyright by the U.S. Secretary of Commerce
on behalf of the United States of America. All rights reserved.
##CAS REGISTRY NO=50-06-6
##$NIST MASS SPEC NO=408715
##MOLFORM=C12 H12 N2 O3
##MW=232
##$NIST SOURCE=MSDC
##XUNITS=M/Z
##YUNITS=RELATIVE INTENSITY
##XFACTOR=1
##YFACTOR=1
##FIRSTX=15
##LASTX=234
##FIRSTY=20
##MAXX=234
##MINX=15
##MAXY=9999
##MINY=10
##NPOINTS=140
##PEAK TABLE=(XY..XY)
15,20 16,10 26,50 27,260
28,140 29,270 30,20 37,30
38,80 39,701 40,80 41,130
42,50 43,220 44,330 45,30
46,10 49,20 50,410 51,1501
53,120 54,60 55,40 56,30
58,951 61,50 62,290 63,871
64,140 65,470 67,20 68,20
69,60 70,300 71,40 72,10
73,140 74,150 75,190 76,390
77,1822 78,781 79,100 80,20
81,10 82,20 83,10 84,10
85,20 86,70 87,140 88,120
89,1241 90,621 91,1601 92,200
93,50 94,40 95,10 98,30
99,10 100,10 101,60 102,490
103,1922 104,1551 105,821 106,110
107,20 110,10 111,10 112,60
113,40 114,60 115,2502 116,731
117,4824 118,1982 119,190 120,30
126,10 127,10 128,130 129,40
130,100 131,250 132,671 133,731
134,90 135,10 140,10 141,60
142,70 143,661 144,761 145,140
146,1792 147,250 148,20 149,10
154,20 155,60 156,130 157,30
158,20 159,60 160,741 161,1692
162,240 163,20 170,10 171,40
172,150 173,30 174,871 175,130
176,280 177,30 185,60 186,80
187,190 188,50 189,380 190,40
200,10 201,10 203,220 204,9999
205,1151 206,140 207,10 215,130
216,20 217,320 218,40 219,10
231,10 232,1151 233,160 234,20
##END=
