##TITLE=Corticosterone
##JCAMP-DX=4.24
##DATA TYPE=MASS SPECTRUM
##ORIGIN=D.HENNEBERG, MAX-PLANCK INSTITUTE, MULHEIM, WEST GERMANY
##OWNER=NIST Mass Spectrometry Data Center
Collection (C) 2014 copyright by the U.S. Secretary of Commerce
on behalf of the United States of America. All rights reserved.
##CAS REGISTRY NO=50-22-6
##$NIST MASS SPEC NO=62040
##MOLFORM=C21 H30 O4
##MW=346
##$NIST SOURCE=MSDC
##XUNITS=M/Z
##YUNITS=RELATIVE INTENSITY
##XFACTOR=1
##YFACTOR=1
##FIRSTX=27
##LASTX=348
##FIRSTY=714
##MAXX=348
##MINX=27
##MAXY=9999
##MINY=3
##NPOINTS=272
##PEAK TABLE=(XY..XY)
27,714 28,259 29,892 31,1655
39,668 40,44 41,2485 42,159
43,1166 45,103 51,154 52,98
53,994 54,128 55,2968 56,145
57,342 65,512 66,213 67,1386
68,196 69,756 70,107 71,241
77,1353 78,364 79,1998 80,355
81,1745 82,193 83,396 84,56
85,183 86,46 87,120 89,48
90,51 91,2308 92,481 93,1483
94,311 95,1457 96,206 97,514
98,75 99,214 100,80 101,63
102,31 103,215 104,123 105,1477
106,428 107,1388 108,295 109,831
110,122 111,242 112,42 113,343
114,70 115,334 116,153 117,567
118,164 119,865 121,1453 122,468
123,817 124,475 125,163 126,21
127,139 128,244 129,440 130,175
131,776 132,176 133,931 134,337
135,787 136,191 137,396 138,55
139,51 140,23 141,182 142,146
143,466 144,158 145,2129 146,377
147,1221 148,281 149,502 150,72
151,73 152,54 153,81 154,56
155,272 156,86 157,418 158,123
159,687 160,208 161,1410 162,293
163,565 164,89 165,82 166,46
167,76 168,43 169,224 170,87
171,389 172,110 173,795 174,181
175,765 176,142 177,117 178,26
179,73 180,25 181,100 182,44
183,181 184,95 185,332 186,144
187,318 188,78 189,267 190,54
191,93 192,49 193,53 194,27
195,158 196,63 197,135 198,100
199,350 200,105 201,265 202,56
203,47 204,18 205,44 206,29
207,42 208,27 209,198 210,54
211,317 212,92 213,518 214,125
215,135 216,32 217,62 218,14
219,30 220,13 221,35 222,62
223,124 224,40 225,185 226,80
227,2003 228,372 229,203 230,172
231,92 232,29 233,33 235,70
236,42 237,79 238,25 239,111
240,53 241,304 242,121 243,213
244,47 245,54 246,20 247,21
248,15 249,30 250,22 251,821
252,197 253,83 254,70 255,127
256,32 257,33 258,12 259,30
260,71 261,59 263,21 264,22
265,23 267,92 268,76 269,6575
270,1386 271,196 272,36 273,44
274,13 276,5 277,19 278,7
279,107 280,41 281,35 282,17
283,12 284,10 285,35 286,29
287,328 288,67 289,25 290,9
291,3 292,4 294,9 295,30
296,10 297,281 298,75 299,56
300,38 301,27 302,13 303,5
304,9 305,3 306,3 309,7
310,31 311,54 312,31 313,146
314,48 315,9999 316,2130 317,346
318,60 319,13 325,3 326,9
327,16 328,585 329,147 330,33
331,19 332,6 333,9 344,14
345,12 346,164 347,55 348,7
##END=
