##TITLE=Hydrocortisone
##JCAMP-DX=4.24
##DATA TYPE=MASS SPECTRUM
##OWNER=NIST Mass Spectrometry Data Center
Collection (C) 2014 copyright by the U.S. Secretary of Commerce
on behalf of the United States of America. All rights reserved.
##CAS REGISTRY NO=50-23-7
##$NIST MASS SPEC NO=16228
##MOLFORM=C21 H30 O5
##MW=362
##$NIST SOURCE=MSDC
##XUNITS=M/Z
##YUNITS=RELATIVE INTENSITY
##XFACTOR=1
##YFACTOR=1
##FIRSTX=41
##LASTX=364
##FIRSTY=5805
##MAXX=364
##MINX=41
##MAXY=9999
##MINY=100
##NPOINTS=172
##PEAK TABLE=(XY..XY)
41,5805 42,1301 43,6306 44,1101
45,300 53,2002 55,6105 56,300
57,801 60,1001 61,500 65,801
66,300 67,3503 68,400 69,1501
70,300 71,500 77,3703 78,1001
79,5305 80,601 81,2803 82,300
83,1001 91,6306 92,801 93,3603
94,801 95,3303 96,500 97,2803
98,200 99,200 103,500 104,300
105,4704 106,1201 107,3803 108,901
109,2803 110,801 111,500 115,500
116,200 117,1101 118,500 119,3703
120,1001 121,5005 122,3103 123,5805
124,4604 125,1001 128,400 129,801
130,300 131,1802 132,500 133,2202
134,1201 135,2502 136,1301 137,1802
138,500 141,200 142,200 143,2202
144,601 145,3003 146,601 147,2803
148,1001 149,1501 150,300 151,200
155,400 157,801 158,400 159,1301
160,701 161,2903 162,1201 163,5205
164,601 169,300 171,901 172,300
173,1201 174,400 175,701 176,300
177,300 183,400 184,200 185,701
186,300 187,601 188,300 189,1001
190,300 191,400 197,300 198,300
199,801 200,400 201,500 203,300
209,500 210,100 211,400 212,200
213,500 223,200 224,100 225,1101
226,200 227,2602 228,601 229,500
239,400 240,1101 241,1001 242,2202
243,1101 244,200 245,400 249,400
250,200 251,300 256,300 257,300
258,300 259,200 260,2002 261,500
265,200 266,200 267,2903 268,601
269,1301 270,200 271,100 274,400
283,200 284,701 285,9999 286,2002
287,500 302,3003 303,1802 304,400
311,300 313,500 314,500 315,701
316,300 326,2202 327,601 328,200
329,400 330,200 332,1201 333,300
334,200 344,3603 345,701 346,200
347,100 362,5605 363,1201 364,200
##END=
