##TITLE=Estriol
##JCAMP-DX=4.24
##DATA TYPE=MASS SPECTRUM
##ORIGIN=D.HENNEBERG, MAX-PLANCK INSTITUTE, MULHEIM, WEST GERMANY
##OWNER=NIST Mass Spectrometry Data Center
Collection (C) 2014 copyright by the U.S. Secretary of Commerce
on behalf of the United States of America. All rights reserved.
##CAS REGISTRY NO=50-27-1
##$NIST MASS SPEC NO=62031
##MOLFORM=C18 H24 O3
##MW=288
##$NIST SOURCE=MSDC
##XUNITS=M/Z
##YUNITS=RELATIVE INTENSITY
##XFACTOR=1
##YFACTOR=1
##FIRSTX=27
##LASTX=291
##FIRSTY=536
##MAXX=291
##MINX=27
##MAXY=9999
##MINY=5
##NPOINTS=236
##PEAK TABLE=(XY..XY)
27,536 28,136 29,586 30,49
31,355 38,6 39,564 41,1379
42,131 43,883 45,219 47,38
49,9 50,37 51,171 52,87
53,459 54,55 55,992 56,121
57,437 58,50 59,27 60,274
61,35 62,16 63,99 64,48
65,323 66,103 67,384 68,84
69,309 70,34 71,227 72,35
73,83 74,40 75,35 76,80
77,794 78,211 79,591 80,80
81,577 82,58 83,205 84,100
85,75 86,35 87,54 88,32
89,118 90,45 91,839 92,201
93,258 94,149 95,439 96,102
97,206 98,69 99,110 100,36
101,45 102,94 103,357 104,119
105,657 106,90 107,1109 108,328
109,225 110,548 111,118 112,48
113,89 114,88 115,1003 116,364
117,430 118,91 119,241 120,475
121,521 122,89 123,93 124,14
125,76 126,103 127,626 128,535
129,429 130,139 131,1047 132,523
133,1986 134,364 135,193 136,57
137,29 138,16 139,115 140,58
141,366 142,142 143,152 144,903
145,1784 146,2588 147,1196 148,190
149,59 150,44 151,35 152,139
153,200 154,62 155,147 156,39
157,1302 158,1234 159,2252 160,2771
161,987 162,171 163,113 164,32
165,178 166,44 167,119 168,76
169,141 170,284 171,546 172,1424
173,726 174,174 175,92 176,45
177,25 178,55 179,78 180,26
181,170 182,119 183,286 184,338
185,779 186,427 187,161 188,92
189,34 190,28 191,31 192,16
193,24 194,44 195,136 196,110
197,340 198,238 199,471 200,213
201,1026 202,1071 203,207 204,40
205,24 206,16 207,31 208,36
209,104 210,74 211,489 212,244
213,1932 214,931 215,206 216,224
217,57 218,23 219,10 220,15
221,22 222,14 223,89 224,87
225,178 226,189 227,239 228,202
229,61 230,30 231,38 232,18
233,13 236,28 237,138 238,22
239,85 241,116 242,183 243,146
244,64 245,35 246,12 250,15
251,69 252,123 253,61 254,21
255,111 256,37 257,43 258,28
259,21 260,127 261,26 264,6
267,9 268,17 269,85 270,311
271,68 272,85 273,42 274,5
280,10 284,9 286,67 287,96
288,9999 289,1955 290,234 291,23
##END=
