##TITLE=p,p'-DDT
##JCAMP-DX=4.24
##DATA TYPE=MASS SPECTRUM
##ORIGIN=NIST Mass Spectrometry Data Center, 1990.
##OWNER=NIST Mass Spectrometry Data Center
Collection (C) 2014 copyright by the U.S. Secretary of Commerce
on behalf of the United States of America. All rights reserved.
##CAS REGISTRY NO=50-29-3
##$NIST MASS SPEC NO=118994
##MOLFORM=C14 H9 Cl5
##MW=352
##$NIST SOURCE=MSDC
##XUNITS=M/Z
##YUNITS=RELATIVE INTENSITY
##XFACTOR=1
##YFACTOR=1
##FIRSTX=26
##LASTX=360
##FIRSTY=13
##MAXX=360
##MINX=26
##MAXY=9999
##MINY=6
##NPOINTS=183
##PEAK TABLE=(XY..XY)
26,13 27,71 35,44 36,88
37,35 38,79 39,135 44,9
47,38 49,60 50,435 51,355
52,30 55,9 56,9 60,20
61,81 62,173 63,299 64,23
65,12 67,12 68,23 69,38
72,29 73,202 74,464 75,864
76,147 77,81 78,10 82,443
84,90 85,158 86,178 87,391
88,527 90,12 91,6 92,47
93,98 94,30 96,16 97,92
98,180 99,464 100,234 101,238
102,33 105,384 106,273 108,38
109,88 110,160 111,236 112,69
113,134 114,73 115,71 117,168
119,156 120,14 121,77 122,106
123,414 124,236 125,162 126,111
127,37 128,7 132,13 133,42
134,55 135,203 136,530 137,205
138,253 139,132 140,39 141,58
142,26 143,11 144,9 145,11
146,59 147,40 148,60 149,149
150,213 151,143 152,48 153,9
158,11 159,31 160,69 161,72
162,125 163,592 164,748 165,4319
166,587 167,35 170,170 171,218
172,144 173,206 174,231 175,303
176,1000 177,244 178,41 183,20
184,46 185,28 186,63 187,17
188,12 195,10 196,13 197,48
199,1347 200,650 201,533 202,236
203,33 204,8 205,24 206,117
207,39 208,115 209,46 210,231
211,175 212,1070 213,184 214,316
215,46 220,17 222,15 233,126
235,9999 236,1637 237,6518 238,957
239,1055 240,152 241,13 243,6
244,21 246,994 247,371 248,703
249,213 250,140 251,36 252,9
262,10 280,69 281,188 282,405
283,247 284,332 285,122 286,102
287,22 288,10 316,286 317,256
318,388 319,301 320,214 321,158
322,62 323,36 352,247 353,56
354,423 355,83 356,261 357,46
358,83 359,10 360,13
##END=
