##TITLE=Benzoic acid, 2,3,6-trichloro-
##JCAMP-DX=4.24
##DATA TYPE=MASS SPECTRUM
##ORIGIN=Chemical Concepts
##OWNER=NIST Mass Spectrometry Data Center
Collection (C) 2014 copyright by the U.S. Secretary of Commerce
on behalf of the United States of America. All rights reserved.
##CAS REGISTRY NO=50-31-7
##$NIST MASS SPEC NO=190213
##MOLFORM=C7 H3 Cl3 O2
##MW=224
##$NIST SOURCE=MSDC
##XUNITS=M/Z
##YUNITS=RELATIVE INTENSITY
##XFACTOR=1
##YFACTOR=1
##FIRSTX=25
##LASTX=230
##FIRSTY=46
##MAXX=230
##MINX=25
##MAXY=9999
##MINY=21
##NPOINTS=167
##PEAK TABLE=(XY..XY)
25,46 26,99 27,200 28,558
29,348 30,36 31,368 35,146
36,454 37,940 38,322 39,174
40,23 41,390 42,97 43,336
44,887 45,628 47,204 48,160
49,499 50,597 51,215 52,202
53,140 54,519 55,332 56,155
57,397 58,39 59,167 60,248
61,493 62,414 63,330 64,31
65,49 66,46 67,95 68,66
69,227 70,124 71,214 72,848
73,2064 74,3764 75,852 76,91
77,144 78,75 79,265 80,235
81,150 82,92 83,225 84,1485
85,399 86,543 87,233 88,22
89,51 90,194 91,119 92,28
93,34 94,134 95,131 96,132
97,628 98,215 99,309 100,78
101,48 102,26 104,41 105,87
106,72 107,239 108,1636 109,3558
110,815 111,1094 112,154 113,74
114,24 115,46 117,24 118,374
119,190 120,281 121,116 122,66
123,30 124,23 125,370 126,156
127,130 128,63 129,29 131,46
132,183 133,583 134,140 135,380
136,37 137,80 138,28 139,25
141,217 142,110 143,1383 144,2757
145,2145 146,1789 147,910 148,294
149,352 150,44 152,25 153,92
154,37 155,101 156,22 160,198
161,46 162,135 163,21 165,27
167,32 168,22 169,28 173,110
175,72 179,2478 180,1095 181,2471
182,1035 183,764 184,327 185,94
186,33 189,775 190,129 191,524
192,80 193,106 196,362 197,28
198,343 199,24 200,110 207,9999
208,866 209,9726 210,792 211,3382
212,252 213,358 214,33 220,28
224,7911 225,638 226,7547 227,606
228,2644 229,199 230,294
##END=
