##TITLE=Phenylbutazone
##JCAMP-DX=4.24
##DATA TYPE=MASS SPECTRUM
##ORIGIN=Tox21 Consortium/NIST Mass Spectrometry Data Center, 2012
##OWNER=NIST Mass Spectrometry Data Center
Collection (C) 2014 copyright by the U.S. Secretary of Commerce
on behalf of the United States of America. All rights reserved.
##CAS REGISTRY NO=50-33-9
##$NIST MASS SPEC NO=408762
##MOLFORM=C19 H20 N2 O2
##MW=308
##$NIST SOURCE=MSDC
##XUNITS=M/Z
##YUNITS=RELATIVE INTENSITY
##XFACTOR=1
##YFACTOR=1
##FIRSTX=26
##LASTX=311
##FIRSTY=30
##MAXX=311
##MINX=26
##MAXY=9999
##MINY=10
##NPOINTS=169
##PEAK TABLE=(XY..XY)
26,30 27,400 28,80 29,420
30,10 37,20 38,70 39,440
40,80 41,801 42,150 43,80
44,10 50,120 51,951 52,150
53,120 54,50 55,1281 56,90
57,420 58,20 61,10 62,30
63,270 64,641 65,490 66,100
67,60 68,30 69,390 70,50
71,10 73,10 74,30 75,50
76,200 77,9418 78,741 79,60
80,30 81,90 82,10 83,70
84,10 86,10 88,10 89,30
90,80 91,1191 92,280 93,1071
94,130 95,30 96,10 97,80
98,30 101,10 102,50 103,60
104,350 105,1992 106,200 107,30
108,10 113,10 114,10 115,130
116,30 117,110 118,240 119,671
120,130 121,10 123,10 125,420
126,70 127,80 128,150 129,70
130,140 131,40 132,170 133,60
134,20 135,10 139,40 140,20
141,10 142,10 143,20 144,80
145,60 146,180 147,20 148,20
150,20 151,130 152,621 153,310
154,170 155,20 156,20 157,40
158,30 159,20 160,190 161,20
162,10 166,80 167,100 168,50
169,40 170,20 171,10 172,40
173,40 174,180 175,20 179,10
180,20 181,120 182,300 183,9999
184,3063 185,350 186,30 188,40
189,20 193,10 194,10 195,40
196,10 198,10 200,10 207,10
208,10 209,20 210,20 211,90
212,20 214,10 219,10 220,10
221,20 223,10 235,60 236,10
237,30 238,10 247,20 248,10
249,10 251,150 252,631 253,130
254,20 264,10 265,150 266,30
291,30 292,10 293,20 306,10
307,10 308,3063 309,611 310,90
311,10
##END=
