##TITLE=Desipramine
##JCAMP-DX=4.24
##DATA TYPE=MASS SPECTRUM
##ORIGIN=Virginia Division of Forensic Science
##OWNER=NIST Mass Spectrometry Data Center
Collection (C) 2014 copyright by the U.S. Secretary of Commerce
on behalf of the United States of America. All rights reserved.
##CAS REGISTRY NO=50-47-5
##$NIST MASS SPEC NO=250707
##MOLFORM=C18 H22 N2
##MW=266
##$NIST SOURCE=MSDC
##XUNITS=M/Z
##YUNITS=RELATIVE INTENSITY
##XFACTOR=1
##YFACTOR=1
##FIRSTX=14
##LASTX=268
##FIRSTY=20
##MAXX=268
##MINX=14
##MAXY=9999
##MINY=10
##NPOINTS=179
##PEAK TABLE=(XY..XY)
14,20 15,140 16,10 25,10
26,30 27,290 28,700 29,220
30,630 31,40 37,10 38,60
39,590 40,110 41,450 42,1060
43,560 44,7676 45,250 50,120
51,530 52,190 53,80 54,80
55,50 56,710 57,440 58,180
61,10 62,80 63,510 64,210
65,760 66,70 67,10 68,60
70,1020 71,3553 72,660 73,40
74,70 75,180 76,230 77,980
78,360 79,120 80,20 82,40
84,140 86,20 87,80 88,110
89,1141 90,450 91,1601 92,140
93,50 94,20 96,80 97,90
98,10 99,30 100,20 101,140
102,270 103,330 104,210 105,190
106,740 107,260 109,40 110,30
111,20 112,10 113,70 114,80
115,650 116,500 117,870 118,720
119,160 120,60 124,10 125,30
126,110 127,180 128,480 129,490
130,2312 131,340 132,90 133,150
137,30 138,40 139,310 140,240
141,130 142,100 143,120 144,150
145,10 146,20 149,10 150,100
151,310 152,730 153,230 154,180
155,30 156,20 157,10 158,30
159,10 161,10 162,20 163,170
164,280 165,1611 166,740 167,1131
168,260 169,30 173,10 174,10
175,30 176,310 177,380 178,1541
179,1621 180,1411 181,270 182,20
187,10 188,30 189,150 190,460
191,1421 192,3062 193,9068 194,6315
195,9608 196,1501 197,110 202,60
203,130 204,980 205,540 206,1931
207,790 208,7056 209,1341 210,120
211,10 215,30 216,50 217,220
218,540 219,400 220,2232 221,760
222,1010 223,180 224,10 230,30
231,30 232,180 234,9999 235,8187
236,1391 237,160 238,20 249,10
251,80 252,10 263,20 264,30
266,3192 267,650 268,70
##END=
