##TITLE=Amitriptyline
##JCAMP-DX=4.24
##DATA TYPE=MASS SPECTRUM
##ORIGIN=R RYHAGE MS-LAB KAROLINSKA INSTITUTET STOCKHOLM SWEDEN
##OWNER=NIST Mass Spectrometry Data Center
Collection (C) 2014 copyright by the U.S. Secretary of Commerce
on behalf of the United States of America. All rights reserved.
##CAS REGISTRY NO=50-48-6
##$NIST MASS SPEC NO=42327
##MOLFORM=C20 H23 N
##MW=277
##$NIST SOURCE=MSDC
##XUNITS=M/Z
##YUNITS=RELATIVE INTENSITY
##XFACTOR=1
##YFACTOR=1
##FIRSTX=13
##LASTX=278
##FIRSTY=17
##MAXX=278
##MINX=13
##MAXY=9999
##MINY=12
##NPOINTS=108
##PEAK TABLE=(XY..XY)
13,17 15,72 18,67 28,245
30,390 31,136 32,25 40,40
41,74 42,208 43,126 44,62
51,94 53,44 54,15 55,25
57,257 58,9999 59,469 65,32
70,17 71,42 72,12 75,15
76,57 77,17 82,37 83,44
84,133 87,20 88,151 89,44
91,151 100,32 101,153 103,111
105,20 107,40 110,44 114,114
115,138 116,37 117,40 127,94
128,109 129,91 130,35 132,20
137,25 139,126 141,12 151,124
152,64 153,32 155,25 160,15
162,62 163,57 165,96 166,15
167,42 174,59 175,22 176,94
178,178 179,49 180,12 182,37
184,54 186,22 188,52 189,121
190,104 191,82 192,156 193,64
195,15 198,35 199,52 200,37
201,114 202,230 203,161 204,79
205,109 210,77 213,49 214,99
215,138 216,114 217,180 218,99
219,128 226,163 227,25 228,40
229,168 230,69 232,99 233,22
240,62 258,47 259,22 273,86
275,208 276,35 277,30 278,20
##END=
