##TITLE=Imipramine
##JCAMP-DX=4.24
##DATA TYPE=MASS SPECTRUM
##ORIGIN=Virginia Division of Forensic Science
##OWNER=NIST Mass Spectrometry Data Center
Collection (C) 2014 copyright by the U.S. Secretary of Commerce
on behalf of the United States of America. All rights reserved.
##CAS REGISTRY NO=50-49-7
##$NIST MASS SPEC NO=250696
##MOLFORM=C19 H24 N2
##MW=280
##$NIST SOURCE=MSDC
##XUNITS=M/Z
##YUNITS=RELATIVE INTENSITY
##XFACTOR=1
##YFACTOR=1
##FIRSTX=15
##LASTX=282
##FIRSTY=70
##MAXX=282
##MINX=15
##MAXY=9999
##MINY=10
##NPOINTS=152
##PEAK TABLE=(XY..XY)
15,70 16,10 18,70 20,10
26,30 27,130 28,420 29,190
30,540 31,20 32,50 38,20
39,300 40,70 41,290 42,1361
43,470 44,780 45,50 46,20
50,50 51,280 52,100 53,60
54,30 55,40 56,320 57,500
58,9999 59,460 60,20 62,50
63,260 64,90 65,390 66,40
67,20 68,40 69,20 70,1191
71,280 72,280 74,30 75,70
76,130 77,500 78,220 79,60
80,20 81,20 82,50 84,1030
85,4764 86,640 87,70 88,60
89,610 90,240 91,960 92,90
93,20 95,70 97,110 101,90
102,180 103,210 104,120 105,130
106,630 107,250 108,20 113,60
114,30 115,410 116,340 117,650
118,450 119,160 120,20 125,20
126,70 127,130 128,320 129,410
130,2071 131,340 132,60 138,20
139,220 140,300 141,110 142,80
143,90 144,130 145,20 150,70
151,200 152,500 153,170 154,100
155,30 156,20 158,20 163,160
164,200 165,1030 166,450 167,740
168,150 176,210 177,240 178,1111
179,1131 180,720 181,130 182,20
189,90 190,340 191,900 192,1831
193,4434 194,3222 195,3633 196,570
197,20 202,40 203,60 204,750
205,470 206,1561 207,530 208,2262
209,580 210,50 216,30 217,210
218,510 219,310 220,1931 221,590
222,570 223,90 230,20 232,150
234,9618 235,7957 236,1431 237,110
265,30 280,2031 281,430 282,40
##END=
