##TITLE=Thioridazine
##JCAMP-DX=4.24
##DATA TYPE=MASS SPECTRUM
##ORIGIN=Patti Price, Georgia Bureau of Investigation, Decatur, Georgia
##OWNER=NIST Mass Spectrometry Data Center
Collection (C) 2014 copyright by the U.S. Secretary of Commerce
on behalf of the United States of America. All rights reserved.
##CAS REGISTRY NO=50-52-2
##$NIST MASS SPEC NO=248121
##MOLFORM=C21 H26 N2 S2
##MW=370
##$NIST SOURCE=MSDC
##XUNITS=M/Z
##YUNITS=RELATIVE INTENSITY
##XFACTOR=1
##YFACTOR=1
##FIRSTX=41
##LASTX=374
##FIRSTY=180
##MAXX=374
##MINX=41
##MAXY=9999
##MINY=10
##NPOINTS=177
##PEAK TABLE=(XY..XY)
41,180 42,790 43,90 44,200
45,70 47,30 52,10 53,30
54,50 55,200 56,90 57,60
58,140 62,10 63,40 65,30
67,80 68,220 69,160 70,1991
71,120 75,10 77,50 79,20
80,30 81,50 82,200 83,80
84,160 85,10 87,10 89,10
91,40 94,80 95,80 96,370
97,140 98,9999 99,790 100,30
101,20 105,20 106,10 107,20
108,70 109,40 110,80 111,90
112,150 113,20 114,30 115,50
116,10 120,30 121,40 122,30
124,170 125,500 126,1571 127,170
128,50 134,30 137,10 138,10
139,130 140,170 141,80 142,10
143,10 145,30 148,10 150,20
151,50 152,120 154,120 155,20
158,60 159,30 160,10 161,10
164,50 165,30 166,120 167,370
168,60 169,60 170,50 171,120
172,40 176,10 177,50 178,190
179,370 180,130 181,20 182,20
183,70 184,170 185,1351 186,290
187,70 190,30 191,100 192,80
193,30 194,40 196,350 197,260
198,530 199,300 200,60 201,20
202,10 203,10 204,30 207,10
208,10 209,130 210,460 211,960
212,410 213,120 214,50 215,30
221,10 222,50 223,280 224,270
225,480 226,740 227,130 228,200
229,580 230,180 231,60 232,10
236,70 237,30 238,30 239,20
240,10 241,20 242,150 243,240
244,1030 245,480 246,140 247,40
250,10 254,10 255,20 256,70
257,80 258,940 259,510 260,160
261,60 262,10 269,10 270,30
271,150 272,60 273,20 274,10
283,10 284,50 285,10 286,10
298,10 323,20 355,50 369,10
370,3383 371,790 372,360 373,80
374,10
##END=
