##TITLE=Chlorpromazine
##JCAMP-DX=4.24
##DATA TYPE=MASS SPECTRUM
##ORIGIN=NIST Mass Spectrometry Data Center, 1998.
##OWNER=NIST Mass Spectrometry Data Center
Collection (C) 2014 copyright by the U.S. Secretary of Commerce
on behalf of the United States of America. All rights reserved.
##CAS REGISTRY NO=50-53-3
##$NIST MASS SPEC NO=291119
##MOLFORM=C17 H19 Cl N2 S
##MW=318
##$NIST SOURCE=MSDC
##XUNITS=M/Z
##YUNITS=RELATIVE INTENSITY
##XFACTOR=1
##YFACTOR=1
##FIRSTX=15
##LASTX=323
##FIRSTY=30
##MAXX=323
##MINX=15
##MAXY=9999
##MINY=10
##NPOINTS=233
##PEAK TABLE=(XY..XY)
15,30 26,10 27,30 29,70
30,260 38,10 39,90 40,10
41,130 42,710 43,220 44,410
45,130 46,10 47,10 50,50
51,80 52,20 53,10 54,10
55,20 56,180 57,230 58,9999
59,460 60,10 61,10 62,30
63,130 64,20 65,50 66,10
67,10 68,20 69,190 70,340
71,180 72,250 73,30 74,40
75,90 76,50 77,90 78,20
79,20 81,20 82,70 83,20
84,340 85,910 86,2300 87,150
88,20 89,40 90,20 91,30
92,10 93,40 94,30 95,80
96,20 97,10 99,40 100,10
101,30 102,30 103,20 104,10
105,30 106,20 107,50 108,100
109,60 110,20 111,30 112,20
113,40 114,30 115,30 116,30
117,20 118,10 119,20 120,30
121,20 122,20 123,20 124,20
125,50 126,80 127,50 128,30
129,10 130,20 131,10 132,10
133,20 134,30 135,20 136,20
137,30 138,50 139,160 140,70
141,10 142,30 143,20 144,20
145,30 146,30 147,20 148,10
149,20 150,40 151,100 152,230
153,210 154,70 155,10 156,10
157,10 158,20 159,30 160,20
161,20 162,40 163,20 164,150
165,70 166,80 167,70 168,20
169,70 170,80 171,70 172,30
173,30 174,40 175,20 176,20
177,60 178,90 179,100 180,50
181,20 182,40 183,50 184,70
185,20 186,20 187,30 188,160
189,30 190,60 191,50 192,20
193,10 194,10 195,30 196,400
197,360 198,160 199,50 200,120
201,60 202,50 203,20 204,60
205,60 206,30 207,20 208,20
209,50 210,90 211,100 212,90
213,80 214,410 215,80 216,130
217,30 218,20 219,10 220,10
221,10 222,20 223,120 224,80
225,160 226,30 227,30 228,20
229,10 230,20 231,50 232,750
233,540 234,340 235,190 236,60
237,50 238,70 239,30 240,30
241,20 242,10 243,10 244,50
245,30 246,220 247,190 248,100
249,70 250,10 257,30 258,60
259,100 260,80 261,40 262,20
270,10 272,920 273,320 274,380
275,120 276,30 277,10 318,1530
319,310 320,580 321,110 322,30
323,10
##END=
