##TITLE=Reserpine
##JCAMP-DX=4.24
##DATA TYPE=MASS SPECTRUM
##ORIGIN=Patti Price, Georgia Bureau of Investigation, Decatur, Georgia
##OWNER=NIST Mass Spectrometry Data Center
Collection (C) 2014 copyright by the U.S. Secretary of Commerce
on behalf of the United States of America. All rights reserved.
##CAS REGISTRY NO=50-55-5
##$NIST MASS SPEC NO=248144
##MOLFORM=C33 H40 N2 O9
##MW=608
##$NIST SOURCE=MSDC
##XUNITS=M/Z
##YUNITS=RELATIVE INTENSITY
##XFACTOR=1
##YFACTOR=1
##FIRSTX=41
##LASTX=609
##FIRSTY=250
##MAXX=609
##MINX=41
##MAXY=9999
##MINY=10
##NPOINTS=391
##PEAK TABLE=(XY..XY)
41,250 42,310 43,250 44,150
45,440 49,60 50,370 51,420
52,210 53,730 54,100 55,530
56,130 57,90 58,80 59,840
61,130 62,250 63,650 64,190
65,800 66,1141 67,670 68,270
69,780 70,120 71,220 72,40
73,50 74,220 75,620 76,560
77,1791 78,600 79,1221 80,420
81,1551 82,300 83,230 84,100
85,370 86,50 87,160 88,160
89,520 90,340 91,910 92,700
93,1511 94,740 95,890 96,540
97,380 98,270 99,170 100,130
101,250 102,330 103,460 104,430
105,550 106,510 107,890 108,590
109,1541 110,450 111,1201 112,150
113,180 114,200 115,560 116,360
117,480 118,320 119,510 120,410
121,570 122,960 123,790 124,710
125,470 126,940 127,500 128,480
129,350 130,640 131,320 132,700
133,340 134,500 135,580 136,470
137,1601 138,420 139,1591 140,440
141,2572 142,520 143,650 144,570
145,380 146,430 147,280 148,280
149,410 150,570 151,1321 152,2071
153,650 154,1671 155,1101 156,570
157,290 158,570 159,620 160,680
161,270 162,420 163,370 164,260
165,400 166,390 167,1351 168,500
169,1341 170,670 171,550 172,620
173,680 174,1191 175,550 176,720
177,320 178,360 179,380 180,320
181,670 182,550 183,610 184,810
185,480 186,1601 187,640 188,470
189,410 190,420 191,230 192,400
193,300 194,260 195,9999 196,1271
197,4283 198,1231 199,2422 200,1641
201,680 202,270 203,180 204,250
205,260 206,440 207,310 208,300
209,180 210,440 211,730 212,5414
213,1241 214,1361 215,1040 216,400
217,230 218,200 219,210 220,190
221,310 222,430 223,510 224,500
225,490 226,930 227,710 228,430
229,450 230,210 231,210 232,170
233,110 234,180 235,260 236,700
237,420 238,930 239,560 240,310
241,350 242,280 243,170 244,100
245,90 246,90 247,120 248,170
249,290 250,330 251,2252 252,650
253,560 254,730 255,490 256,320
257,270 258,160 259,180 260,150
261,120 262,180 263,290 264,220
265,940 266,310 267,510 268,190
269,190 270,130 271,230 272,100
273,130 274,130 275,170 276,180
277,250 278,150 279,270 280,120
281,110 282,50 283,90 284,150
285,160 286,260 287,180 288,150
289,210 290,150 291,210 292,110
293,150 294,90 295,200 296,100
297,250 298,140 299,350 300,240
301,650 302,370 303,320 304,160
305,330 306,180 307,160 308,60
309,90 310,60 311,60 313,220
314,240 315,280 316,160 317,350
318,150 319,170 320,100 321,380
322,120 323,250 324,80 325,90
326,40 327,130 328,140 329,270
330,150 331,170 332,80 333,160
334,90 335,190 336,60 337,260
338,100 339,80 341,100 342,140
343,200 344,320 345,250 346,120
347,140 348,140 349,200 350,90
351,200 352,60 353,110 354,40
355,20 356,60 357,340 358,370
359,1721 360,1291 361,490 362,290
363,510 364,290 365,890 366,340
367,160 368,70 369,120 370,30
371,80 372,180 373,100 374,190
375,360 376,420 377,170 378,90
379,200 380,170 381,1791 382,610
383,170 385,30 386,30 389,120
390,130 391,90 392,80 393,170
394,500 395,2572 396,1141 397,1181
398,310 399,150 400,40 401,20
402,40 404,30 406,30 408,30
409,30 410,30 411,240 412,90
413,560 414,210 415,60 420,40
421,10 422,10 427,10 434,120
435,70 436,40 437,30 448,420
449,140 450,80 451,90 463,40
465,30 575,60 576,60 577,190
578,90 579,30 591,40 593,340
594,130 595,30 605,40 606,100
607,1241 608,1971 609,630
##END=
