##TITLE=Benzoic acid, 2,5-dichloro-
##JCAMP-DX=4.24
##DATA TYPE=MASS SPECTRUM
##ORIGIN=Japan AIST/NIMC Database- Spectrum MS-NW-3242
##OWNER=NIST Mass Spectrometry Data Center
Collection (C) 2014 copyright by the U.S. Secretary of Commerce
on behalf of the United States of America. All rights reserved.
##CAS REGISTRY NO=50-79-3
##$NIST MASS SPEC NO=231365
##MOLFORM=C7 H4 Cl2 O2
##MW=190
##$NIST SOURCE=MSDC
##XUNITS=M/Z
##YUNITS=RELATIVE INTENSITY
##XFACTOR=1
##YFACTOR=1
##FIRSTX=12
##LASTX=196
##FIRSTY=10
##MAXX=196
##MINX=12
##MAXY=9999
##MINY=10
##NPOINTS=146
##PEAK TABLE=(XY..XY)
12,10 14,10 16,10 17,20
18,70 25,30 26,40 27,30
28,50 29,50 31,10 35,80
36,319 37,579 38,289 39,129
40,10 41,10 42,10 43,20
44,309 45,499 46,10 47,90
48,60 49,329 50,1069 51,289
52,20 53,149 54,389 55,349
56,99 57,10 59,10 60,129
61,239 62,189 63,529 64,80
65,20 66,30 67,10 68,20
69,30 70,10 71,40 72,269
73,849 74,2319 75,2429 76,209
77,159 78,50 79,10 80,40
81,80 82,60 83,40 84,599
85,379 86,369 87,259 88,40
89,20 90,30 91,90 92,20
95,70 96,60 97,80 98,129
99,509 100,70 101,179 102,10
103,10 107,30 108,139 109,1689
110,1529 111,1409 112,539 113,319
114,20 118,30 119,60 120,30
121,40 122,10 123,10 124,10
125,20 126,70 127,109 128,40
129,40 133,40 135,20 137,20
138,20 139,209 140,20 141,70
144,119 145,3039 146,469 147,2039
148,249 149,349 150,40 153,10
154,10 155,469 156,279 157,179
158,90 159,10 160,20 161,10
162,249 163,30 164,169 165,10
166,30 167,10 168,10 169,10
170,10 171,10 172,60 173,8809
174,679 175,5419 176,459 177,979
178,80 179,10 189,40 190,9999
191,819 192,6669 193,549 194,1129
195,90 196,10
##END=
