##TITLE=Vitamin C
##JCAMP-DX=4.24
##DATA TYPE=MASS SPECTRUM
##ORIGIN=Japan AIST/NIMC Database- Spectrum MS-IW-3282
##OWNER=NIST Mass Spectrometry Data Center
Collection (C) 2014 copyright by the U.S. Secretary of Commerce
on behalf of the United States of America. All rights reserved.
##CAS REGISTRY NO=50-81-7
##$NIST MASS SPEC NO=228563
##MOLFORM=C6 H8 O6
##MW=176
##$NIST SOURCE=MSDC
##XUNITS=M/Z
##YUNITS=RELATIVE INTENSITY
##XFACTOR=1
##YFACTOR=1
##FIRSTX=14
##LASTX=178
##FIRSTY=40
##MAXX=178
##MINX=14
##MAXY=9999
##MINY=10
##NPOINTS=106
##PEAK TABLE=(XY..XY)
14,40 15,319 16,10 17,60
18,329 19,249 25,10 26,129
27,389 28,299 29,1499 30,429
31,1199 32,70 33,10 37,30
38,60 39,209 40,80 41,259
42,789 43,2829 44,999 45,719
46,60 47,99 49,10 50,10
51,10 52,10 53,209 54,399
55,679 56,279 57,359 58,839
59,659 60,309 61,1789 62,40
63,20 66,10 67,20 68,99
69,639 70,1139 71,1169 72,369
73,629 74,159 75,30 76,419
77,20 81,10 82,10 83,90
84,219 85,1809 86,109 87,579
88,359 89,199 90,10 91,549
92,20 95,20 96,20 97,10
98,129 99,99 100,539 101,809
102,449 103,70 104,10 105,10
110,10 111,10 112,50 113,70
114,40 115,159 116,9999 117,479
118,119 119,1379 120,70 121,10
127,70 128,80 129,60 130,99
131,10 132,10 133,10 140,20
141,10 144,10 145,149 146,40
148,20 149,10 158,30 176,679
177,60 178,10
##END=
