##TITLE=Benzoic acid, 2,4-dichloro-
##JCAMP-DX=4.24
##DATA TYPE=MASS SPECTRUM
##ORIGIN=Japan AIST/NIMC Database- Spectrum MS-NW-1858
##OWNER=NIST Mass Spectrometry Data Center
Collection (C) 2014 copyright by the U.S. Secretary of Commerce
on behalf of the United States of America. All rights reserved.
##CAS REGISTRY NO=50-84-0
##$NIST MASS SPEC NO=228960
##MOLFORM=C7 H4 Cl2 O2
##MW=190
##$NIST SOURCE=MSDC
##XUNITS=M/Z
##YUNITS=RELATIVE INTENSITY
##XFACTOR=1
##YFACTOR=1
##FIRSTX=14
##LASTX=195
##FIRSTY=30
##MAXX=195
##MINX=14
##MAXY=9999
##MINY=10
##NPOINTS=136
##PEAK TABLE=(XY..XY)
14,30 16,30 17,10 18,40
25,20 26,40 27,30 28,10
29,50 31,10 35,60 36,209
37,519 38,259 39,119 40,40
41,10 42,10 43,10 44,449
45,389 46,10 47,70 48,50
49,299 50,969 51,299 52,20
53,169 54,299 55,349 56,99
57,10 60,99 61,209 62,179
63,509 64,90 65,30 66,20
67,10 68,20 69,40 70,10
71,30 72,219 73,779 74,2149
75,2119 76,199 77,70 78,10
81,459 82,309 83,90 84,529
85,329 86,239 87,179 88,30
89,20 90,10 91,70 92,30
95,30 96,30 97,50 98,169
99,379 100,80 101,139 102,10
103,10 105,10 107,30 108,139
109,1559 110,929 111,1099 112,329
113,209 114,20 118,10 119,50
120,20 121,30 122,10 123,10
125,10 126,70 127,40 128,40
129,20 133,40 134,10 135,20
137,20 138,20 139,349 140,30
141,119 142,10 144,80 145,2549
146,379 147,1659 148,229 149,269
150,40 155,60 156,259 157,40
158,99 159,10 160,10 161,10
162,339 163,30 164,209 165,20
166,40 171,10 172,30 173,9999
174,769 175,6459 176,529 177,1059
178,90 189,10 190,6049 191,489
192,4029 193,309 194,639 195,50
##END=
