##TITLE=Thymidine
##JCAMP-DX=4.24
##DATA TYPE=MASS SPECTRUM
##ORIGIN=Japan AIST/NIMC Database- Spectrum MS-NW-8319
##OWNER=NIST Mass Spectrometry Data Center
Collection (C) 2014 copyright by the U.S. Secretary of Commerce
on behalf of the United States of America. All rights reserved.
##CAS REGISTRY NO=50-89-5
##$NIST MASS SPEC NO=228191
##MOLFORM=C10 H14 N2 O5
##MW=242
##$NIST SOURCE=MSDC
##XUNITS=M/Z
##YUNITS=RELATIVE INTENSITY
##XFACTOR=1
##YFACTOR=1
##FIRSTX=14
##LASTX=243
##FIRSTY=30
##MAXX=243
##MINX=14
##MAXY=9999
##MINY=10
##NPOINTS=116
##PEAK TABLE=(XY..XY)
14,30 15,319 16,20 17,109
18,559 19,739 25,20 26,239
27,1279 28,1929 29,1139 30,149
31,1099 32,30 36,30 37,40
38,149 39,1179 40,809 41,1409
42,909 43,4179 44,1109 45,5179
46,119 47,259 50,20 51,80
52,229 53,549 54,1369 55,3599
56,519 57,1029 58,129 59,60
60,90 61,90 65,40 66,90
67,249 68,519 69,1659 70,639
71,2239 72,149 73,5029 74,189
75,159 77,10 78,10 79,20
80,519 81,739 82,639 83,1069
84,319 85,329 86,99 87,179
88,10 92,20 93,30 94,119
95,60 96,219 97,659 98,1219
99,3139 100,189 101,20 108,70
109,219 110,1439 111,109 112,60
115,20 116,229 117,9999 118,579
119,70 122,229 123,30 124,30
125,40 126,4059 127,2809 128,209
129,20 138,50 139,50 140,30
141,10 150,319 151,50 152,60
153,459 154,229 155,30 156,80
157,10 165,30 168,80 169,20
170,20 181,40 182,40 193,70
194,20 199,20 206,129 207,10
211,80 212,30 242,419 243,49
##END=
