##TITLE=Floxuridine
##JCAMP-DX=4.24
##DATA TYPE=MASS SPECTRUM
##ORIGIN=Japan AIST/NIMC Database- Spectrum MS-IW-4949
##OWNER=NIST Mass Spectrometry Data Center
Collection (C) 2014 copyright by the U.S. Secretary of Commerce
on behalf of the United States of America. All rights reserved.
##CAS REGISTRY NO=50-91-9
##$NIST MASS SPEC NO=237402
##MOLFORM=C9 H11 F N2 O5
##MW=246
##$NIST SOURCE=MSDC
##XUNITS=M/Z
##YUNITS=RELATIVE INTENSITY
##XFACTOR=1
##YFACTOR=1
##FIRSTX=12
##LASTX=247
##FIRSTY=10
##MAXX=247
##MINX=12
##MAXY=9999
##MINY=10
##NPOINTS=120
##PEAK TABLE=(XY..XY)
12,10 14,30 15,139 16,20
17,159 18,849 19,299 20,20
25,30 26,109 27,709 28,2469
29,789 30,119 31,1119 32,109
33,49 36,10 37,50 38,169
39,739 40,259 41,859 42,769
43,1749 44,1699 45,2499 46,99
47,319 48,20 49,20 50,60
51,169 52,109 53,459 54,209
55,639 56,179 57,1219 58,709
59,829 60,3049 61,179 62,10
64,10 65,20 66,80 67,50
68,479 69,1059 70,729 71,1269
72,219 73,2919 74,219 75,90
78,10 79,10 80,30 81,1359
82,259 83,50 84,129 85,679
86,289 87,5189 88,699 89,30
91,10 94,20 95,70 96,40
97,1079 98,1209 99,1669 100,199
101,30 102,30 103,20 107,10
110,10 111,10 112,159 113,109
114,839 115,139 116,199 117,8009
118,469 119,60 123,20 126,119
127,30 128,10 129,10 130,9999
131,1309 132,109 133,20 141,10
142,10 143,30 144,20 154,199
155,20 156,30 157,339 158,129
159,20 169,50 172,10 173,20
178,10 185,40 186,50 197,90
215,50 216,10 246,90 247,10
##END=
