##TITLE=Scopolamine
##JCAMP-DX=4.24
##DATA TYPE=MASS SPECTRUM
##ORIGIN=NIST Mass Spectrometry Data Center, 1998.
##OWNER=NIST Mass Spectrometry Data Center
Collection (C) 2014 copyright by the U.S. Secretary of Commerce
on behalf of the United States of America. All rights reserved.
##CAS REGISTRY NO=51-34-3
##$NIST MASS SPEC NO=290684
##MOLFORM=C17 H21 N O4
##MW=303
##$NIST SOURCE=MSDC
##XUNITS=M/Z
##YUNITS=RELATIVE INTENSITY
##XFACTOR=1
##YFACTOR=1
##FIRSTX=15
##LASTX=305
##FIRSTY=60
##MAXX=305
##MINX=15
##MAXY=9999
##MINY=10
##NPOINTS=118
##PEAK TABLE=(XY..XY)
15,60 26,20 27,200 28,50
29,240 30,130 31,490 32,20
37,10 38,40 39,680 40,140
41,1420 42,4100 43,490 44,560
45,40 49,10 50,110 51,450
52,150 53,450 54,350 55,870
56,550 57,1150 58,340 59,20
60,40 61,10 62,70 63,290
64,110 65,800 66,270 67,950
68,1210 69,490 70,680 71,70
72,160 73,30 74,30 75,40
76,60 77,1770 78,600 79,1160
80,430 81,2000 82,1390 83,400
84,430 85,30 86,140 87,20
88,10 89,640 90,930 91,1920
92,260 93,880 94,9999 95,1070
96,950 97,2580 98,350 99,50
100,10 101,20 102,130 103,2530
104,480 105,100 106,270 107,570
108,5589 109,1080 110,1430 111,260
112,110 113,20 114,30 115,20
116,10 117,20 118,560 119,100
120,1450 121,1160 122,350 123,60
124,80 125,10 126,200 127,20
128,10 131,30 132,10 135,50
136,3920 137,1530 138,8389 139,770
140,60 141,10 154,2830 155,300
156,40 157,10 214,40 215,10
285,20 286,30 287,10 303,1400
304,270 305,30
##END=
