##TITLE=Norethindrone Acetate
##JCAMP-DX=4.24
##DATA TYPE=MASS SPECTRUM
##ORIGIN=Chemical Concepts
##OWNER=NIST Mass Spectrometry Data Center
Collection (C) 2014 copyright by the U.S. Secretary of Commerce
on behalf of the United States of America. All rights reserved.
##CAS REGISTRY NO=51-98-9
##$NIST MASS SPEC NO=157941
##MOLFORM=C22 H28 O3
##MW=340
##$NIST SOURCE=MSDC
##XUNITS=M/Z
##YUNITS=RELATIVE INTENSITY
##XFACTOR=1
##YFACTOR=1
##FIRSTX=27
##LASTX=342
##FIRSTY=721
##MAXX=342
##MINX=27
##MAXY=9999
##MINY=1
##NPOINTS=222
##PEAK TABLE=(XY..XY)
27,721 28,500 29,854 31,177
39,788 40,1223 41,1993 42,144
43,9999 44,231 45,146 51,224
52,133 53,1162 54,124 55,1219
56,71 57,189 59,7 60,47
63,63 64,4 65,676 66,201
67,1097 68,206 69,309 70,2
71,98 74,1 77,1630 78,446
79,1944 80,305 81,1061 82,197
83,343 84,14 85,38 89,67
90,16 91,2666 92,477 93,1068
94,239 95,661 96,173 97,339
98,3 102,35 103,361 104,235
105,1474 106,364 107,1151 108,511
109,803 110,1401 111,260 112,44
113,44 115,591 116,245 117,977
118,373 119,1059 120,582 121,780
122,658 123,495 124,236 125,92
127,129 128,389 129,650 130,263
131,783 132,309 133,780 134,437
135,860 136,245 137,221 138,68
139,45 141,335 142,244 143,518
144,224 145,696 146,379 147,785
148,411 149,436 150,133 151,71
152,89 153,131 154,106 155,448
156,211 157,510 158,364 159,794
160,754 161,701 162,573 163,313
164,148 165,177 166,85 167,202
168,111 169,354 170,330 171,551
172,345 173,809 174,413 175,453
176,210 177,163 178,167 179,135
180,70 181,246 182,130 183,309
184,228 185,410 186,384 187,477
188,364 189,413 190,111 191,117
192,15 193,90 194,58 195,320
196,173 197,358 198,236 199,372
200,224 201,350 202,241 203,200
204,156 205,86 206,1 207,101
208,68 209,287 210,251 211,314
212,290 213,1076 214,322 215,1230
216,287 217,198 218,106 219,104
220,18 221,113 222,74 223,441
224,266 225,214 226,281 227,197
228,619 229,317 230,336 231,1562
232,277 233,81 234,10 235,16
236,78 237,352 238,283 239,158
240,77 241,238 242,144 243,60
245,2 247,100 251,255 252,381
253,127 254,83 255,238 256,136
257,3 262,72 263,74 265,613
266,135 269,291 270,382 271,78
279,221 280,1036 281,287 282,41
283,1316 284,285 285,5 297,727
298,1808 299,410 300,20 312,3
325,3234 326,782 327,105 340,4082
341,1077 342,158
##END=
