##TITLE=Prednisolone Acetate
##JCAMP-DX=4.24
##DATA TYPE=MASS SPECTRUM
##ORIGIN=Japan AIST/NIMC Database- Spectrum MS-IW-3586
##OWNER=NIST Mass Spectrometry Data Center
Collection (C) 2014 copyright by the U.S. Secretary of Commerce
on behalf of the United States of America. All rights reserved.
##CAS REGISTRY NO=52-21-1
##$NIST MASS SPEC NO=235678
##MOLFORM=C23 H30 O6
##MW=402
##$NIST SOURCE=MSDC
##XUNITS=M/Z
##YUNITS=RELATIVE INTENSITY
##XFACTOR=1
##YFACTOR=1
##FIRSTX=15
##LASTX=404
##FIRSTY=129
##MAXX=404
##MINX=15
##MAXY=9999
##MINY=10
##NPOINTS=312
##PEAK TABLE=(XY..XY)
15,129 17,50 18,189 27,139
28,99 29,429 30,239 31,129
39,199 40,50 41,839 42,139
43,4639 44,139 45,169 50,10
51,80 52,60 53,349 54,50
55,899 56,80 57,249 58,20
59,20 60,139 61,20 63,40
64,20 65,329 66,80 67,509
68,139 69,449 70,159 71,189
72,30 73,119 74,80 75,20
76,20 77,939 78,199 79,719
80,119 81,569 82,109 83,249
84,50 85,80 86,20 87,159
88,90 89,60 90,30 91,1799
92,359 93,829 94,249 95,719
96,129 97,289 98,60 99,149
100,30 101,99 102,50 103,299
104,109 105,1009 106,409 107,1289
108,409 109,749 110,179 111,269
112,60 113,50 114,20 115,489
116,219 117,589 118,179 119,1369
120,639 121,7969 122,9999 123,1509
124,329 125,149 126,70 127,199
128,369 129,459 130,189 131,679
132,289 133,979 134,1449 135,2049
136,749 137,369 138,119 139,149
140,40 141,279 142,159 143,429
144,309 145,969 146,919 147,3559
148,569 149,559 150,179 151,199
152,129 153,179 154,80 155,199
156,99 157,599 158,339 159,1239
160,709 161,1419 162,339 163,519
164,119 165,279 166,119 167,169
168,70 169,169 170,119 171,939
172,509 173,1039 174,349 175,849
176,169 177,789 178,279 179,369
180,99 181,159 182,99 183,209
184,179 185,499 186,429 187,359
188,179 189,569 190,269 191,359
192,109 193,239 194,99 195,569
196,169 197,359 198,169 199,329
200,129 201,139 202,99 203,399
204,90 205,90 206,60 207,289
208,129 209,379 210,209 211,439
212,249 213,349 214,129 215,119
216,50 217,40 218,20 219,70
220,70 221,299 222,169 223,699
224,329 225,1099 226,429 227,629
228,269 229,169 230,60 231,40
232,30 233,60 234,40 235,199
236,129 237,479 238,879 239,679
240,569 241,289 242,129 243,179
244,149 245,80 246,30 247,50
248,60 249,189 250,199 251,639
252,179 253,479 254,209 255,519
256,299 257,199 258,90 259,40
260,20 261,99 262,50 263,469
264,139 265,549 266,249 267,279
268,149 269,169 270,70 271,99
272,80 273,60 274,50 275,40
276,119 277,109 278,129 279,169
280,99 281,619 282,199 283,629
284,229 285,99 286,99 287,50
288,30 289,20 290,10 291,80
292,40 293,90 294,229 295,179
296,319 297,159 298,90 299,179
300,109 301,229 302,149 303,40
304,40 305,20 306,119 307,50
308,40 309,139 310,60 311,109
312,259 313,149 314,379 315,189
316,50 317,10 323,30 324,359
325,109 326,90 327,129 328,129
336,10 338,10 339,10 340,30
341,30 342,719 343,179 344,119
345,20 346,20 354,60 355,30
356,90 357,30 358,30 359,10
360,50 384,479 385,119 386,30
400,10 402,859 403,229 404,50
##END=
