##TITLE=Cyclobarbital
##JCAMP-DX=4.24
##DATA TYPE=MASS SPECTRUM
##ORIGIN=Japan AIST/NIMC Database- Spectrum MS-NW-2918
##OWNER=NIST Mass Spectrometry Data Center
Collection (C) 2014 copyright by the U.S. Secretary of Commerce
on behalf of the United States of America. All rights reserved.
##CAS REGISTRY NO=52-31-3
##$NIST MASS SPEC NO=231559
##MOLFORM=C12 H16 N2 O3
##MW=236
##$NIST SOURCE=MSDC
##XUNITS=M/Z
##YUNITS=RELATIVE INTENSITY
##XFACTOR=1
##YFACTOR=1
##FIRSTX=15
##LASTX=237
##FIRSTY=30
##MAXX=237
##MINX=15
##MAXY=9999
##MINY=10
##NPOINTS=155
##PEAK TABLE=(XY..XY)
15,30 16,10 17,99 18,59
26,40 27,429 28,189 29,309
30,40 32,20 37,10 38,40
39,589 40,109 41,709 42,70
43,159 44,219 45,20 46,20
50,60 51,249 52,189 53,429
54,109 55,279 56,40 57,40
58,30 59,30 60,30 61,20
62,20 63,80 64,40 65,289
66,149 67,1329 68,139 69,80
70,119 71,20 73,10 74,10
75,20 76,20 77,589 78,189
79,1229 80,999 81,1899 82,139
83,40 84,20 85,40 86,40
87,20 89,40 90,20 91,489
92,119 93,299 94,109 95,80
96,159 97,159 98,299 99,20
100,10 102,10 103,50 104,30
105,149 106,80 107,139 108,109
109,80 110,30 111,10 112,40
113,10 114,40 115,20 116,20
117,40 118,70 119,139 120,80
121,259 122,169 123,70 124,40
125,10 128,90 129,40 130,10
131,10 132,20 133,30 134,40
135,60 136,149 137,109 138,30
139,10 141,1959 142,119 143,20
144,10 145,20 146,99 147,359
148,99 149,50 150,109 151,30
152,10 153,20 154,60 155,70
156,50 157,539 158,40 161,10
162,60 163,60 164,479 165,149
166,119 167,30 178,20 179,119
180,30 181,10 190,80 191,30
192,10 193,159 194,20 195,10
204,20 205,80 206,20 207,9999
208,1219 209,129 210,10 221,90
222,50 232,10 233,20 234,10
235,159 236,169 237,30
##END=
