##TITLE=Aldosterone
##JCAMP-DX=4.24
##DATA TYPE=MASS SPECTRUM
##ORIGIN=H. Fales, LC, NHLBI, NIH, Bethesda, MD 20892
##OWNER=NIST Mass Spectrometry Data Center
Collection (C) 2014 copyright by the U.S. Secretary of Commerce
on behalf of the United States of America. All rights reserved.
##CAS REGISTRY NO=52-39-1
##$NIST MASS SPEC NO=117088
##MOLFORM=C21 H28 O5
##MW=360
##$NIST SOURCE=MSDC
##XUNITS=M/Z
##YUNITS=RELATIVE INTENSITY
##XFACTOR=1
##YFACTOR=1
##FIRSTX=41
##LASTX=361
##FIRSTY=3070
##MAXX=361
##MINX=41
##MAXY=9999
##MINY=90
##NPOINTS=232
##PEAK TABLE=(XY..XY)
41,3070 42,376 43,1986 44,212
45,332 47,302 49,166 51,337
52,223 53,1505 54,271 55,3437
56,210 57,563 59,110 60,171
63,98 64,92 65,1101 66,496
67,2473 68,251 69,804 70,124
71,361 73,195 77,3200 78,863
79,3805 80,649 81,1597 82,271
83,703 84,240 85,300 86,133
87,248 89,156 90,173 91,5578
92,1132 93,2138 94,473 95,1492
96,409 97,719 98,166 99,593
102,101 103,605 104,453 105,2859
106,953 107,1838 108,431 109,931
110,242 111,553 112,184 113,512
115,1296 116,605 117,1865 118,480
119,1576 120,805 121,1643 122,743
123,1440 124,823 125,245 126,589
127,553 128,1067 129,1848 130,730
131,3816 132,724 133,1840 134,651
135,869 136,353 137,409 138,337
139,142 141,908 142,561 143,1140
144,385 145,1336 146,358 147,1320
148,527 149,740 150,549 151,585
152,229 153,312 154,251 155,817
156,258 157,880 158,279 159,1294
160,556 161,2467 162,1200 163,904
164,203 165,366 166,147 167,386
168,179 169,579 170,219 171,626
172,309 173,1513 174,563 175,934
176,303 177,259 178,165 179,236
180,110 181,497 182,183 183,463
184,128 185,618 186,213 187,346
188,156 189,803 190,184 191,223
192,113 193,237 194,106 195,536
196,176 197,742 198,248 199,488
200,168 201,283 202,93 203,134
205,138 207,215 208,114 209,349
210,167 211,882 212,300 213,1204
214,278 215,154 217,93 219,93
221,253 222,112 223,403 224,225
225,526 226,240 227,570 228,379
229,139 235,226 236,130 237,1203
238,372 239,1489 240,422 241,790
242,211 243,240 247,347 248,118
249,142 250,90 251,194 253,650
254,484 255,6972 256,1559 257,874
258,174 259,167 263,129 265,770
266,597 267,699 268,237 269,990
270,251 271,183 272,182 278,163
281,399 282,159 283,8323 284,3081
285,1548 286,492 287,100 293,253
296,1459 297,399 298,259 299,1489
300,477 301,341 309,112 311,6616
312,1603 313,609 314,3832 315,824
316,445 317,91 324,174 327,171
329,9999 330,2297 331,368 342,2232
343,647 344,125 360,758 361,320
##END=
