##TITLE=Bronopol
##JCAMP-DX=4.24
##DATA TYPE=MASS SPECTRUM
##ORIGIN=NIST Mass Spectrometry Data Center, 1998.
##OWNER=NIST Mass Spectrometry Data Center
Collection (C) 2014 copyright by the U.S. Secretary of Commerce
on behalf of the United States of America. All rights reserved.
##CAS REGISTRY NO=52-51-7
##$NIST MASS SPEC NO=292074
##MOLFORM=C3 H6 Br N O4
##MW=199
##$NIST SOURCE=MSDC
##XUNITS=M/Z
##YUNITS=RELATIVE INTENSITY
##XFACTOR=1
##YFACTOR=1
##FIRSTX=12
##LASTX=173
##FIRSTY=20
##MAXX=173
##MINX=12
##MAXY=9999
##MINY=10
##NPOINTS=109
##PEAK TABLE=(XY..XY)
12,20 13,30 14,190 15,710
16,80 17,40 18,90 24,20
25,120 26,1110 27,4770 28,1410
29,5639 30,3120 31,9999 32,160
33,30 36,20 37,140 38,340
39,610 40,300 41,420 42,2630
43,6259 44,3440 45,1330 46,710
47,420 48,210 49,20 51,20
52,30 53,410 54,1270 55,2540
56,970 57,870 58,70 59,50
60,50 61,20 62,20 64,10
68,10 69,60 70,50 71,330
72,1750 73,460 74,180 75,10
79,430 80,260 81,480 82,260
83,60 85,80 86,10 87,10
90,790 91,110 92,140 93,770
94,200 95,690 96,70 97,10
102,460 103,30 104,120 105,3290
106,570 107,7219 108,560 109,4180
110,100 111,160 112,10 119,10
120,80 121,270 122,1560 123,4940
124,1530 125,4530 126,110 127,10
133,140 134,700 135,6839 136,910
137,6489 138,220 139,60 140,50
141,40 142,40 149,20 151,910
152,570 153,880 154,540 155,20
169,2810 170,90 171,2730 172,80
173,20
##END=
