##TITLE=Verapamil
##JCAMP-DX=4.24
##DATA TYPE=MASS SPECTRUM
##ORIGIN=AAFS Toxicology Section MS DB Committee, U. Alberta, Canada
##OWNER=NIST Mass Spectrometry Data Center
Collection (C) 2014 copyright by the U.S. Secretary of Commerce
on behalf of the United States of America. All rights reserved.
##CAS REGISTRY NO=52-53-9
##$NIST MASS SPEC NO=247152
##MOLFORM=C27 H38 N2 O4
##MW=454
##$NIST SOURCE=MSDC
##XUNITS=M/Z
##YUNITS=RELATIVE INTENSITY
##XFACTOR=1
##YFACTOR=1
##FIRSTX=39
##LASTX=454
##FIRSTY=10
##MAXX=454
##MINX=39
##MAXY=9999
##MINY=10
##NPOINTS=176
##PEAK TABLE=(XY..XY)
39,10 41,80 42,200 43,420
44,200 45,10 51,20 52,10
53,10 55,40 56,20 57,260
58,1451 59,60 63,10 64,10
65,60 66,10 67,30 68,10
69,20 70,150 71,260 72,10
75,10 76,20 77,130 78,80
79,120 80,50 81,30 82,40
83,40 84,420 85,30 89,50
90,70 91,210 92,30 93,20
94,50 95,60 96,70 97,10
98,10 101,10 102,20 103,120
104,40 105,180 106,90 107,260
108,90 109,30 110,10 115,70
116,60 117,60 118,50 119,140
120,70 121,120 122,150 123,80
124,50 127,20 128,50 129,30
130,190 131,80 132,50 133,70
134,100 135,140 136,100 137,120
138,190 139,130 140,20 141,10
142,20 143,20 144,30 145,30
146,80 147,40 148,30 149,60
150,280 151,1121 152,150 153,10
154,10 156,30 157,10 158,10
159,40 160,60 161,40 162,20
163,50 164,120 165,700 166,70
167,10 169,10 170,30 171,20
172,40 173,20 174,80 175,60
176,100 177,290 178,60 179,50
180,10 184,10 185,20 186,40
187,60 188,40 189,70 190,40
191,60 192,30 193,20 199,10
200,10 201,20 202,60 203,90
204,30 205,10 206,30 207,10
208,60 209,10 212,10 213,10
214,20 215,10 216,30 217,60
218,120 219,20 220,10 221,10
228,10 229,10 230,10 231,10
232,10 233,30 234,140 235,20
243,50 244,10 245,90 246,10
259,20 260,700 261,130 262,10
271,10 287,20 288,10 289,10
301,10 303,9999 304,1971 305,240
306,20 452,10 453,10 454,10
##END=
