##TITLE=Metrifonate
##JCAMP-DX=4.24
##DATA TYPE=MASS SPECTRUM
##ORIGIN=Japan AIST/NIMC Database- Spectrum MS-NW-7741
##OWNER=NIST Mass Spectrometry Data Center
Collection (C) 2014 copyright by the U.S. Secretary of Commerce
on behalf of the United States of America. All rights reserved.
##CAS REGISTRY NO=52-68-6
##$NIST MASS SPEC NO=227800
##MOLFORM=C4 H8 Cl3 O4 P
##MW=256
##$NIST SOURCE=MSDC
##XUNITS=M/Z
##YUNITS=RELATIVE INTENSITY
##XFACTOR=1
##YFACTOR=1
##FIRSTX=12
##LASTX=261
##FIRSTY=20
##MAXX=261
##MINX=12
##MAXY=9999
##MINY=10
##NPOINTS=131
##PEAK TABLE=(XY..XY)
12,20 13,40 14,80 15,2969
16,30 18,30 25,30 26,10
27,40 28,199 29,1219 30,119
31,1019 32,40 33,499 35,149
36,309 37,30 38,99 39,20
40,10 41,70 42,90 43,20
44,10 45,119 47,3109 48,1199
49,689 50,309 51,99 55,20
57,10 59,20 60,199 61,60
62,139 63,439 64,40 65,379
66,30 67,20 71,10 73,10
75,10 76,699 77,299 78,309
79,9329 80,2519 81,139 82,979
83,829 84,619 85,529 86,109
87,80 89,20 92,10 93,1429
94,40 95,1929 96,90 97,289
98,10 99,129 101,20 103,10
107,10 108,10 109,9999 110,5959
111,779 112,2679 113,1119 114,1799
115,359 116,309 117,249 118,90
119,229 120,90 121,70 122,30
123,30 124,10 125,10 126,10
127,259 128,50 130,259 131,40
132,239 133,20 134,80 136,10
137,10 139,4589 140,169 141,40
145,4879 146,139 147,1579 148,70
149,40 150,20 151,30 153,20
155,10 158,10 169,20 185,1069
186,60 187,329 188,20 189,10
191,10 192,70 193,10 194,50
196,10 220,70 221,1049 222,99
223,689 224,30 225,109 227,10
257,40 259,50 261,10
##END=
