##TITLE=Norethandrolone
##JCAMP-DX=4.24
##DATA TYPE=MASS SPECTRUM
##ORIGIN=NIST Mass Spectrometry Data Center
##OWNER=NIST Mass Spectrometry Data Center
Collection (C) 2014 copyright by the U.S. Secretary of Commerce
on behalf of the United States of America. All rights reserved.
##CAS REGISTRY NO=52-78-8
##$NIST MASS SPEC NO=352191
##MOLFORM=C20 H30 O2
##MW=302
##$NIST SOURCE=MSDC
##XUNITS=M/Z
##YUNITS=RELATIVE INTENSITY
##XFACTOR=1
##YFACTOR=1
##FIRSTX=15
##LASTX=305
##FIRSTY=10
##MAXX=305
##MINX=15
##MAXY=9999
##MINY=10
##NPOINTS=244
##PEAK TABLE=(XY..XY)
15,10 26,30 27,520 28,80
29,2292 30,60 31,180 38,30
39,1151 40,260 41,3873 42,310
43,4314 44,130 45,260 46,10
50,50 51,380 52,320 53,2172
54,380 55,4854 56,370 57,7607
58,550 59,180 60,30 62,10
63,130 64,120 65,1471 66,561
67,3553 68,550 69,1061 70,110
71,550 72,1311 73,250 74,60
75,20 77,3994 78,1161 79,5735
80,1091 81,2933 82,410 83,1191
84,220 85,8508 86,1141 87,140
88,40 89,140 91,7537 92,1441
93,3423 94,901 95,2332 96,500
97,981 98,120 99,360 100,90
101,110 102,130 103,801 104,611
105,4514 106,1341 107,4364 108,2943
109,3763 110,7407 111,871 112,80
113,210 115,1271 116,530 117,2332
118,851 119,3183 120,2312 121,3073
122,2332 123,2793 124,500 125,140
126,50 127,290 128,901 129,1381
130,621 131,1802 132,671 133,2282
134,1091 135,2783 136,561 137,230
138,40 139,100 140,20 141,520
142,350 143,971 144,450 145,2042
146,801 147,1882 148,1191 149,1031
150,380 151,130 152,100 153,120
154,100 155,380 156,260 157,891
158,681 159,1892 160,1281 161,2692
162,1461 163,701 164,110 165,120
166,50 167,110 168,60 169,330
170,280 171,781 172,601 173,1581
174,941 175,1621 176,410 177,310
178,70 179,100 180,60 181,160
182,60 183,230 184,190 185,611
186,811 187,1101 188,701 189,681
190,470 191,80 192,110 193,300
194,60 195,240 196,100 197,510
198,190 199,861 200,390 201,460
202,340 203,390 204,60 205,10
206,10 208,10 209,60 210,90
211,150 212,641 213,1551 214,711
215,5045 216,881 217,731 218,1031
219,170 220,30 221,10 223,30
224,30 225,30 226,80 227,530
228,601 229,230 230,1061 231,6836
232,1131 233,110 234,50 235,10
236,10 237,150 238,40 239,20
240,120 241,130 242,250 243,70
244,30 245,310 246,80 247,20
251,40 252,20 253,20 254,20
255,1742 256,430 257,70 258,10
259,10 260,100 261,20 262,10
265,10 266,100 267,40 268,10
269,430 270,80 271,30 272,20
273,2082 274,450 275,60 276,10
283,40 284,1311 285,280 286,40
287,30 288,10 298,10 300,20
302,9999 303,2232 304,280 305,30
##END=
