##TITLE=Famphur
##JCAMP-DX=4.24
##DATA TYPE=MASS SPECTRUM
##ORIGIN=ACCUSTANDARD Chemicals / NIST MS Data Center.
##OWNER=NIST Mass Spectrometry Data Center
Collection (C) 2014 copyright by the U.S. Secretary of Commerce
on behalf of the United States of America. All rights reserved.
##CAS REGISTRY NO=52-85-7
##$NIST MASS SPEC NO=125540
##MOLFORM=C10 H16 N O5 P S2
##MW=325
##$NIST SOURCE=MSDC
##XUNITS=M/Z
##YUNITS=RELATIVE INTENSITY
##XFACTOR=1
##YFACTOR=1
##FIRSTX=15
##LASTX=327
##FIRSTY=318
##MAXX=327
##MINX=15
##MAXY=9999
##MINY=11
##NPOINTS=133
##PEAK TABLE=(XY..XY)
15,318 16,11 17,26 18,195
26,17 28,295 29,56 30,24
31,73 32,77 38,74 39,55
40,46 41,72 42,523 43,222
44,570 45,131 46,51 47,395
48,38 49,44 50,168 51,78
52,22 53,29 58,45 59,34
62,222 63,689 64,270 65,154
66,43 67,37 69,75 70,32
73,15 74,59 75,153 76,285
77,133 78,15 79,865 80,48
81,31 82,43 83,34 84,21
89,63 90,67 91,107 92,275
93,2122 94,113 95,160 96,108
97,26 106,35 107,131 108,291
109,1071 110,91 111,106 115,18
119,42 120,48 121,29 122,58
123,173 124,18 125,2080 126,103
127,178 130,21 132,15 134,20
135,27 136,158 137,28 138,34
139,154 140,56 141,43 151,308
152,176 153,64 154,107 155,245
156,86 157,71 158,22 169,28
170,35 171,84 172,164 173,43
185,272 186,234 187,125 188,24
189,36 201,378 202,773 203,111
204,29 217,2450 218,9999 219,1168
220,480 221,68 232,130 233,227
234,67 235,26 249,33 260,31
261,160 262,131 263,35 265,186
266,41 281,292 282,820 283,160
284,101 294,125 295,22 296,22
309,67 324,25 325,173 326,32
327,26
##END=
