##TITLE=Prednisone
##JCAMP-DX=4.24
##DATA TYPE=MASS SPECTRUM
##ORIGIN=Patti Price, Georgia Bureau of Investigation, Decatur, Georgia
##OWNER=NIST Mass Spectrometry Data Center
Collection (C) 2014 copyright by the U.S. Secretary of Commerce
on behalf of the United States of America. All rights reserved.
##CAS REGISTRY NO=53-03-2
##$NIST MASS SPEC NO=247957
##MOLFORM=C21 H26 O5
##MW=358
##$NIST SOURCE=MSDC
##XUNITS=M/Z
##YUNITS=RELATIVE INTENSITY
##XFACTOR=1
##YFACTOR=1
##FIRSTX=41
##LASTX=360
##FIRSTY=870
##MAXX=360
##MINX=41
##MAXY=9999
##MINY=30
##NPOINTS=245
##PEAK TABLE=(XY..XY)
41,870 42,480 43,1621 45,120
51,330 52,260 53,1111 54,280
55,1821 56,160 57,260 58,350
60,330 63,210 65,1311 66,250
67,1671 68,840 69,1111 70,390
71,350 73,30 76,260 77,3583
78,1121 79,2832 80,360 81,1121
82,150 83,410 85,50 86,210
87,310 89,380 90,310 91,8958
92,1471 93,1931 94,370 95,1341
96,350 97,980 98,150 99,100
102,470 103,1361 104,440 105,2432
106,70 107,1561 108,390 109,890
110,510 111,370 112,290 113,30
115,4083 116,1961 117,3563 118,570
119,1161 120,700 121,9999 122,1881
123,770 124,130 125,70 126,50
127,910 128,2472 129,2352 130,670
131,4494 132,1641 133,2442 134,1931
135,2992 136,440 137,290 138,170
139,1481 140,70 141,1391 142,800
143,1251 144,890 145,3683 146,1611
147,8347 148,1301 149,390 150,330
151,300 152,570 153,690 154,180
155,660 156,130 157,1141 158,1251
159,5424 160,4434 161,4193 162,590
163,910 164,60 165,750 166,250
167,450 168,210 169,600 170,350
171,2362 172,700 173,1861 174,390
175,670 176,360 177,500 178,330
179,440 180,410 181,580 182,360
183,870 184,790 185,1861 186,1311
187,3262 188,810 189,900 190,340
191,460 192,300 193,350 194,270
195,980 196,540 197,1181 198,760
199,1291 200,590 201,940 202,460
203,310 204,290 205,590 206,510
207,390 208,690 209,940 210,630
211,1751 212,920 213,1671 214,560
215,310 217,250 219,830 220,420
221,1621 222,890 223,8417 224,2131
225,1561 226,1331 227,1891 228,750
229,260 230,260 233,360 234,310
235,500 236,550 237,2131 238,1831
239,2422 240,900 241,2382 242,1070
243,330 244,230 247,160 248,510
249,260 250,100 251,460 252,440
253,1651 254,1661 255,5294 256,2362
257,520 258,290 259,250 261,400
262,140 263,1371 264,380 265,710
266,370 267,330 268,160 269,160
270,520 271,440 272,230 277,240
279,460 280,600 281,1731 282,570
283,380 284,90 285,30 291,210
293,380 294,300 295,150 296,270
297,410 298,1841 299,5324 300,1181
301,480 307,240 309,340 310,100
311,1251 312,540 313,330 314,270
322,270 325,300 326,360 327,70
329,230 330,150 340,710 341,480
343,200 356,290 358,6375 359,1471
360,460
##END=
