##TITLE=Cortisone
##JCAMP-DX=4.24
##DATA TYPE=MASS SPECTRUM
##ORIGIN=Japan AIST/NIMC Database- Spectrum MS-IW-4878
##OWNER=NIST Mass Spectrometry Data Center
Collection (C) 2014 copyright by the U.S. Secretary of Commerce
on behalf of the United States of America. All rights reserved.
##CAS REGISTRY NO=53-06-5
##$NIST MASS SPEC NO=237380
##MOLFORM=C21 H28 O5
##MW=360
##$NIST SOURCE=MSDC
##XUNITS=M/Z
##YUNITS=RELATIVE INTENSITY
##XFACTOR=1
##YFACTOR=1
##FIRSTX=14
##LASTX=362
##FIRSTY=30
##MAXX=362
##MINX=14
##MAXY=9999
##MINY=10
##NPOINTS=303
##PEAK TABLE=(XY..XY)
14,30 15,40 17,139 18,669
26,20 27,379 28,389 29,929
30,629 31,619 32,199 38,10
39,629 40,159 41,1689 42,249
43,1219 44,70 45,70 50,30
51,209 52,129 53,819 54,119
55,1759 56,119 57,209 58,70
59,30 60,289 61,10 62,10
63,90 64,70 65,569 66,239
67,1049 68,339 69,659 70,60
71,199 72,50 73,70 74,20
75,30 76,40 77,1389 78,379
79,1649 80,339 81,989 82,249
83,329 84,70 85,119 86,99
87,70 88,20 89,90 90,50
91,2409 92,429 93,1139 94,349
95,1109 96,419 97,729 98,99
99,229 100,70 101,80 102,60
103,319 104,179 105,1679 106,449
107,1699 108,589 109,899 110,379
111,279 112,50 113,70 114,60
115,509 116,229 117,669 118,229
119,1069 120,569 121,3729 122,9999
123,2689 124,559 125,279 126,80
127,149 128,369 129,469 130,209
131,769 132,279 133,1279 134,999
135,1779 136,1569 137,599 138,169
139,239 140,50 141,209 142,169
143,499 144,289 145,919 146,499
147,1939 148,599 149,719 150,189
151,269 152,99 153,129 154,60
155,179 156,109 157,359 158,259
159,949 160,649 161,2009 162,859
163,1489 164,299 165,599 166,149
167,149 168,90 169,199 170,129
171,469 172,219 173,809 174,349
175,639 176,249 177,369 178,299
179,749 180,139 181,149 182,80
183,259 184,139 185,359 186,279
187,619 188,449 189,909 190,279
191,279 192,159 193,539 194,119
195,539 196,129 197,319 198,179
199,339 200,169 201,369 202,269
203,179 204,139 205,179 206,129
207,259 208,199 209,369 210,119
211,299 212,149 213,309 214,199
215,539 216,209 217,109 218,70
219,80 220,60 221,129 222,109
223,259 224,139 225,549 226,199
227,339 228,369 229,379 230,549
231,219 232,80 233,70 234,50
235,80 236,60 237,149 238,149
239,389 240,199 241,539 242,279
243,789 244,469 245,259 246,80
247,60 248,30 249,109 250,50
251,119 252,50 253,149 254,119
255,429 256,799 257,2359 258,2439
259,679 260,129 261,40 262,30
263,60 264,70 265,219 266,109
267,519 268,199 269,139 270,80
271,259 272,419 273,259 274,80
275,50 276,20 277,40 278,20
279,60 280,30 281,129 282,189
283,429 284,249 285,1129 286,389
287,159 288,60 289,20 291,20
292,20 293,30 294,50 295,159
296,70 297,169 298,90 299,169
300,2579 301,1829 302,519 303,99
304,10 306,10 308,10 309,70
310,109 311,609 312,569 313,2099
314,609 315,329 316,70 317,30
324,40 325,10 326,99 327,159
328,1149 329,289 330,2979 331,719
332,179 333,30 342,889 343,269
344,229 345,80 346,20 358,20
360,1209 361,299 362,50
##END=
