##TITLE=Estrone
##JCAMP-DX=4.24
##DATA TYPE=MASS SPECTRUM
##ORIGIN=NIST Mass Spectrometry Data Center, 1998.
##OWNER=NIST Mass Spectrometry Data Center
Collection (C) 2014 copyright by the U.S. Secretary of Commerce
on behalf of the United States of America. All rights reserved.
##CAS REGISTRY NO=53-16-7
##$NIST MASS SPEC NO=291986
##MOLFORM=C18 H22 O2
##MW=270
##$NIST SOURCE=MSDC
##XUNITS=M/Z
##YUNITS=RELATIVE INTENSITY
##XFACTOR=1
##YFACTOR=1
##FIRSTX=15
##LASTX=273
##FIRSTY=10
##MAXX=273
##MINX=15
##MAXY=9999
##MINY=10
##NPOINTS=205
##PEAK TABLE=(XY..XY)
15,10 26,10 27,220 28,70
29,250 30,10 31,10 38,10
39,530 40,110 41,1010 42,150
43,220 44,20 45,10 50,50
51,300 52,120 53,660 54,110
55,1130 56,80 57,200 58,20
62,30 63,190 64,80 65,510
66,130 67,650 68,110 69,190
70,40 71,30 72,30 74,20
75,60 76,130 77,1110 78,280
79,900 80,90 81,390 82,150
83,130 84,60 85,170 87,20
88,40 89,230 90,80 91,1300
92,360 93,330 94,130 95,230
96,50 97,610 98,120 99,110
101,50 102,150 103,520 104,170
105,750 106,120 107,1130 108,310
109,120 110,70 111,100 112,30
113,40 114,70 115,1680 116,580
117,560 118,120 119,220 120,1110
121,490 122,100 123,290 124,80
125,20 126,80 127,990 128,930
129,580 130,130 131,1460 132,500
133,1620 134,260 135,130 136,20
137,10 138,10 139,130 140,40
141,580 142,170 143,180 144,1230
145,2190 146,3930 147,1010 148,130
149,100 150,150 151,90 152,260
153,270 154,90 155,180 156,60
157,1800 158,1470 159,1970 160,1800
161,310 162,30 163,70 164,40
165,310 166,90 167,140 168,80
169,230 170,810 171,900 172,3250
173,780 174,190 175,30 176,30
177,30 178,90 179,90 180,30
181,200 182,130 183,290 184,280
185,3890 186,1360 187,210 188,50
189,30 190,10 191,20 192,10
193,40 194,50 195,160 196,90
197,290 198,200 199,870 200,290
201,60 202,20 205,10 207,20
208,20 209,140 210,140 211,670
212,240 213,2190 214,1020 215,150
216,20 219,10 221,10 222,10
223,110 224,90 225,100 226,750
227,310 228,110 229,20 235,20
236,10 237,350 238,60 239,20
240,10 241,130 242,550 243,90
244,10 251,70 252,70 253,40
254,10 255,130 256,20 268,10
269,170 270,9999 271,1970 272,220
273,20
##END=
