##TITLE=Mitotane
##JCAMP-DX=4.24
##DATA TYPE=MASS SPECTRUM
##ORIGIN=NIST Mass Spectrometry Data Center, 1990.
##OWNER=NIST Mass Spectrometry Data Center
Collection (C) 2014 copyright by the U.S. Secretary of Commerce
on behalf of the United States of America. All rights reserved.
##CAS REGISTRY NO=53-19-0
##$NIST MASS SPEC NO=119004
##MOLFORM=C14 H10 Cl4
##MW=318
##$NIST SOURCE=MSDC
##XUNITS=M/Z
##YUNITS=RELATIVE INTENSITY
##XFACTOR=1
##YFACTOR=1
##FIRSTX=26
##LASTX=324
##FIRSTY=17
##MAXX=324
##MINX=26
##MAXY=9999
##MINY=2
##NPOINTS=163
##PEAK TABLE=(XY..XY)
26,17 27,79 28,228 30,6
35,28 36,50 37,36 38,78
39,177 40,7 47,19 48,26
49,58 50,462 51,463 52,41
55,6 56,9 60,10 61,75
62,175 63,362 64,25 65,18
68,30 69,35 70,30 73,186
74,431 75,1014 76,272 77,139
78,15 80,17 82,475 84,56
85,225 86,170 87,367 88,727
90,23 91,9 92,32 93,128
94,49 96,12 97,68 98,148
99,385 100,288 101,559 102,308
103,34 105,123 106,202 107,75
108,20 109,51 110,78 111,156
112,74 113,118 114,79 115,62
116,10 120,7 121,18 122,43
123,142 124,72 125,125 126,111
127,42 132,8 133,12 134,19
135,121 136,350 137,412 138,252
139,245 140,31 145,7 146,21
147,21 148,40 149,137 150,266
151,251 152,119 153,13 159,20
160,42 161,65 162,126 163,644
164,871 165,4622 166,662 167,36
170,23 171,75 172,130 173,131
174,219 175,284 176,1132 177,413
178,576 179,89 180,6 183,10
184,26 185,23 186,49 187,18
188,13 196,12 197,35 199,1957
200,1028 201,744 202,335 203,44
207,2 208,11 210,69 212,847
213,191 214,273 215,56 216,7
231,7 233,111 235,9999 236,1787
237,6666 238,980 239,1155 240,140
241,10 246,99 247,150 248,129
249,84 250,60 251,22 252,14
281,12 282,60 283,68 284,64
285,58 286,32 287,22 288,7
318,330 319,77 320,427 321,70
322,210 323,30 324,51
##END=
