##TITLE=Oxandrolone
##JCAMP-DX=4.24
##DATA TYPE=MASS SPECTRUM
##ORIGIN=NIST Mass Spectrometry Data Center
##OWNER=NIST Mass Spectrometry Data Center
Collection (C) 2014 copyright by the U.S. Secretary of Commerce
on behalf of the United States of America. All rights reserved.
##CAS REGISTRY NO=53-39-4
##$NIST MASS SPEC NO=352198
##MOLFORM=C19 H30 O3
##MW=306
##$NIST SOURCE=MSDC
##XUNITS=M/Z
##YUNITS=RELATIVE INTENSITY
##XFACTOR=1
##YFACTOR=1
##FIRSTX=15
##LASTX=308
##FIRSTY=20
##MAXX=308
##MINX=15
##MAXY=9999
##MINY=10
##NPOINTS=244
##PEAK TABLE=(XY..XY)
15,20 26,20 27,360 29,991
30,30 31,120 37,10 38,20
39,1001 40,310 41,4504 42,571
43,9619 44,280 45,380 46,10
49,10 50,30 51,230 52,160
53,2172 54,550 55,4974 56,340
57,1812 58,4094 59,831 60,80
61,120 62,10 63,60 64,40
65,981 66,400 67,4304 68,1862
69,1722 70,240 71,9999 72,1922
73,150 74,120 75,60 77,2352
78,520 79,5075 80,1041 81,5015
82,811 83,1101 84,170 85,520
86,60 87,40 88,80 89,110
91,4524 92,941 93,5425 94,1581
95,4074 96,540 97,881 98,180
99,110 100,20 101,50 102,180
103,330 104,210 105,3733 106,1261
107,4374 108,2112 109,2582 110,420
111,510 112,120 113,240 114,40
115,390 116,180 117,891 118,530
119,2752 120,1511 121,3873 122,2953
123,3773 124,480 125,631 126,360
127,200 128,240 129,330 130,150
131,891 132,390 133,1872 134,891
135,1772 136,360 137,1071 138,180
139,811 140,150 141,120 142,80
143,310 144,130 145,1031 146,340
147,1892 148,651 149,711 150,270
151,240 152,150 153,961 154,160
155,90 156,40 157,340 158,140
159,1051 160,460 161,1631 162,1561
163,1421 164,561 165,350 166,130
167,290 168,40 169,70 170,30
171,611 172,210 173,1041 174,741
175,1782 176,2803 177,791 178,210
179,410 180,110 181,520 182,70
183,40 184,20 185,150 186,100
187,430 188,450 189,1211 190,250
191,230 192,160 193,270 194,100
195,30 196,10 197,60 198,10
199,160 200,50 201,260 202,150
203,190 204,130 205,200 206,370
207,250 208,40 209,10 210,10
211,60 212,20 213,250 214,120
215,250 216,190 217,270 218,240
219,430 220,360 221,310 222,50
223,10 225,10 226,10 227,70
228,150 229,180 230,130 231,631
232,611 233,1621 234,390 235,450
236,530 237,160 238,20 239,10
241,20 242,10 243,20 244,20
245,100 246,1862 247,380 248,3073
249,2422 250,400 251,40 255,50
256,10 257,20 258,10 259,320
260,90 261,20 262,20 263,20
264,10 269,10 270,20 271,10
273,1822 274,380 275,50 277,10
278,20 286,10 287,20 288,1241
289,280 291,3984 292,771 293,100
294,10 306,410 307,80 308,10
##END=
