##TITLE=Androsterone
##JCAMP-DX=4.24
##DATA TYPE=MASS SPECTRUM
##ORIGIN=D.HENNEBERG, MAX-PLANCK INSTITUTE, MULHEIM, WEST GERMANY
##OWNER=NIST Mass Spectrometry Data Center
Collection (C) 2014 copyright by the U.S. Secretary of Commerce
on behalf of the United States of America. All rights reserved.
##CAS REGISTRY NO=53-41-8
##$NIST MASS SPEC NO=62014
##MOLFORM=C19 H30 O2
##MW=290
##$NIST SOURCE=MSDC
##XUNITS=M/Z
##YUNITS=RELATIVE INTENSITY
##XFACTOR=1
##YFACTOR=1
##FIRSTX=27
##LASTX=293
##FIRSTY=581
##MAXX=293
##MINX=27
##MAXY=9999
##MINY=4
##NPOINTS=251
##PEAK TABLE=(XY..XY)
27,581 28,105 29,1267 30,62
31,195 37,4 38,7 39,692
40,29 41,3446 42,313 43,992
44,63 45,59 47,9 48,9
49,5 50,21 51,111 52,75
53,1187 54,356 55,3017 56,222
57,792 58,77 59,55 60,9
61,10 62,7 63,34 64,25
65,498 66,285 67,3249 68,638
69,840 70,191 71,140 72,38
73,18 74,36 75,44 76,26
77,1289 78,331 79,2729 80,626
81,2533 82,545 83,481 84,97
85,74 86,29 87,57 88,51
89,31 90,33 91,2124 92,506
93,2729 94,1042 95,1642 96,412
97,1567 98,158 99,65 100,27
101,117 103,133 104,134 105,1728
106,1092 107,3676 108,3627 109,1514
110,1029 111,381 112,41 113,29
114,33 115,313 116,84 117,384
118,237 119,1101 120,955 121,1227
122,1103 123,752 124,1563 125,336
126,45 127,35 128,85 129,156
130,91 131,578 132,225 133,949
134,677 135,708 136,635 137,388
138,191 139,30 140,15 141,50
142,34 143,184 144,179 145,809
146,587 147,1677 148,873 149,655
150,298 151,599 152,147 153,28
154,22 155,45 156,26 157,188
158,144 159,531 160,485 161,720
162,357 163,334 164,999 165,1038
166,373 167,76 168,17 169,36
170,15 171,181 172,102 173,503
174,324 175,376 176,358 177,214
178,162 179,47 180,29 181,16
182,9 183,58 184,41 185,127
186,96 187,288 188,154 189,242
190,785 191,308 192,114 193,51
194,97 195,27 196,18 197,90
198,48 199,212 200,113 201,920
202,239 203,130 204,102 205,100
206,54 207,23 209,60 210,35
211,76 212,65 213,1025 214,250
215,1067 216,1224 217,433 218,288
219,629 220,141 221,16 223,41
225,31 226,77 227,58 228,528
229,466 230,249 231,608 232,173
233,594 234,781 235,118 236,29
237,46 239,865 240,234 241,46
242,38 243,94 244,194 245,52
246,2397 247,583 248,297 249,54
250,13 251,6 252,21 253,48
254,662 255,241 256,114 257,1512
258,326 259,46 260,37 261,56
262,111 263,39 265,15 266,15
267,9 269,11 270,48 271,88
272,1599 273,362 274,70 275,1214
276,246 277,42 278,9 279,7
281,6 282,5 285,6 286,7
287,8 288,77 289,32 290,9999
291,2090 292,247 293,22
##END=
