##TITLE=Androstan-17-one, 3-hydroxy-, (3.alpha.,5.beta.)-
##JCAMP-DX=4.24
##DATA TYPE=MASS SPECTRUM
##ORIGIN=D.HENNEBERG, MAX-PLANCK INSTITUTE, MULHEIM, WEST GERMANY
##OWNER=NIST Mass Spectrometry Data Center
Collection (C) 2014 copyright by the U.S. Secretary of Commerce
on behalf of the United States of America. All rights reserved.
##CAS REGISTRY NO=53-42-9
##$NIST MASS SPEC NO=62021
##MOLFORM=C19 H30 O2
##MW=290
##$NIST SOURCE=MSDC
##XUNITS=M/Z
##YUNITS=RELATIVE INTENSITY
##XFACTOR=1
##YFACTOR=1
##FIRSTX=26
##LASTX=293
##FIRSTY=119
##MAXX=293
##MINX=26
##MAXY=9999
##MINY=7
##NPOINTS=251
##PEAK TABLE=(XY..XY)
26,119 27,1872 28,378 29,3681
30,136 31,561 37,21 38,28
39,2189 40,214 41,9999 42,848
43,2516 44,367 45,220 46,12
48,10 49,16 50,44 51,358
52,253 53,3395 54,935 55,8002
56,614 57,2254 58,231 59,134
60,42 61,33 62,18 63,88
64,72 65,1397 66,698 67,8623
68,1769 69,2270 70,613 71,345
72,73 73,63 74,69 75,80
76,48 77,3425 78,881 79,7306
80,1594 81,6173 82,1454 83,1176
84,215 85,157 86,39 87,70
88,78 89,89 90,70 91,5779
92,1417 93,6734 94,3153 95,4337
96,934 97,2688 98,286 99,67
100,43 101,143 102,79 103,329
104,371 105,4717 106,2847 107,6140
108,4951 109,2818 110,983 111,648
112,105 113,37 114,39 115,561
116,229 117,1054 118,940 119,3064
120,2597 121,2863 122,1876 123,1381
124,1014 125,307 126,48 127,90
128,285 129,500 130,273 131,1519
132,759 133,2570 134,1970 135,1617
136,1337 137,552 138,150 139,75
140,24 141,23 142,138 143,717
144,624 145,2561 146,1001 147,3069
148,1652 149,1647 150,1014 151,612
152,189 153,72 154,73 155,120
156,85 157,588 158,1085 159,2162
160,1422 161,3051 162,2880 163,880
164,853 165,727 166,246 167,102
168,41 169,148 170,76 171,559
172,447 173,1584 174,2332 175,1558
176,2996 177,985 178,311 179,115
180,39 181,32 182,39 183,200
184,82 185,470 186,493 187,1040
188,699 189,680 190,775 191,267
192,84 193,47 194,35 195,27
196,36 197,402 198,231 199,1013
200,544 201,3515 202,856 203,455
204,203 205,146 206,59 207,32
209,69 210,36 211,274 212,262
213,1776 214,641 215,2868 216,4092
217,1785 218,1986 219,572 220,127
221,43 225,101 226,202 227,150
228,2992 229,1576 230,1296 231,827
232,245 233,233 234,206 235,51
236,24 237,69 238,52 239,1411
240,329 241,136 242,89 243,362
244,5745 245,1094 246,3060 247,643
248,137 249,31 250,14 251,9
253,56 254,988 255,534 256,308
257,4835 258,993 259,142 260,33
262,94 264,23 265,15 266,18
268,22 270,67 271,116 272,5685
273,1185 274,230 275,524 276,88
277,24 279,12 280,12 281,9
282,7 283,10 285,8 286,10
287,12 288,100 289,44 290,9383
291,1925 292,231 293,27
##END=
