##TITLE=Benzeneethanamine, 3,4,5-trimethoxy-
##JCAMP-DX=4.24
##DATA TYPE=MASS SPECTRUM
##ORIGIN=AAFS Toxicology Section MS DB Committee, U. Alberta, Canada
##OWNER=NIST Mass Spectrometry Data Center
Collection (C) 2014 copyright by the U.S. Secretary of Commerce
on behalf of the United States of America. All rights reserved.
##CAS REGISTRY NO=54-04-6
##$NIST MASS SPEC NO=246201
##MOLFORM=C11 H17 N O3
##MW=211
##$NIST SOURCE=MSDC
##XUNITS=M/Z
##YUNITS=RELATIVE INTENSITY
##XFACTOR=1
##YFACTOR=1
##FIRSTX=29
##LASTX=212
##FIRSTY=290
##MAXX=212
##MINX=29
##MAXY=9999
##MINY=10
##NPOINTS=119
##PEAK TABLE=(XY..XY)
29,290 30,9999 31,110 33,10
36,10 37,60 38,150 39,810
41,390 42,150 43,220 44,70
45,180 46,40 47,10 49,20
50,280 51,710 52,1020 53,710
54,170 55,170 57,70 58,50
59,20 60,10 62,90 63,390
64,450 65,790 66,370 67,220
68,50 69,100 70,40 71,10
72,10 73,10 74,40 75,120
76,90 77,900 78,570 79,420
80,980 81,230 82,70 83,10
84,10 85,10 86,10 89,210
90,190 91,1791 92,480 93,250
94,140 95,580 96,50 97,40
101,10 103,50 104,80 105,270
106,650 107,610 108,260 109,230
110,70 111,10 115,20 116,10
118,40 119,90 120,260 121,540
122,200 123,460 124,380 125,50
132,50 133,150 134,110 135,220
136,1301 137,310 138,80 139,330
140,30 146,10 147,90 148,80
149,120 150,40 151,630 152,230
153,60 155,10 163,20 164,40
165,230 166,2742 167,1611 168,220
169,20 176,10 179,240 180,770
181,1661 182,6385 183,680 184,70
190,10 192,30 194,10 195,10
196,20 211,350 212,60
##END=
