##TITLE=Chloroquine
##JCAMP-DX=4.24
##DATA TYPE=MASS SPECTRUM
##ORIGIN=R RYHAGE MS-LAB KAROLINSKA INSTITUTET STOCKHOLM SWEDEN
##OWNER=NIST Mass Spectrometry Data Center
Collection (C) 2014 copyright by the U.S. Secretary of Commerce
on behalf of the United States of America. All rights reserved.
##CAS REGISTRY NO=54-05-7
##$NIST MASS SPEC NO=42361
##MOLFORM=C18 H26 Cl N3
##MW=319
##$NIST SOURCE=MSDC
##XUNITS=M/Z
##YUNITS=RELATIVE INTENSITY
##XFACTOR=1
##YFACTOR=1
##FIRSTX=26
##LASTX=322
##FIRSTY=139
##MAXX=322
##MINX=26
##MAXY=9999
##MINY=14
##NPOINTS=145
##PEAK TABLE=(XY..XY)
26,139 27,194 28,180 29,638
30,1664 31,55 35,28 36,194
38,125 39,222 40,42 41,624
42,888 43,166 44,388 45,55
49,97 50,28 51,55 52,111
53,139 54,180 55,208 56,791
57,208 58,1318 59,139 63,111
65,153 67,166 68,153 69,97
70,153 71,194 72,277 73,818
74,194 75,222 76,14 78,55
80,111 84,361 86,9999 87,985
88,97 89,97 93,125 96,180
97,83 98,180 99,499 100,222
102,97 110,125 111,139 112,541
113,208 114,222 115,125 116,111
120,55 123,97 125,69 126,305
127,111 128,97 129,69 131,69
135,319 136,153 137,139 139,69
140,222 141,125 142,222 143,180
147,55 148,55 149,97 150,111
152,180 155,250 156,69 157,97
162,277 163,180 164,166 165,125
166,97 167,55 168,166 169,472
170,291 177,153 178,111 179,277
181,111 189,83 190,125 191,264
192,125 193,55 194,55 195,125
197,111 202,139 203,153 204,139
205,513 206,111 207,222 208,69
211,139 215,97 217,139 218,139
219,194 220,125 221,194 223,14
229,83 231,236 233,166 235,97
236,55 243,55 245,416 246,194
247,430 248,208 249,111 250,83
251,55 281,28 290,444 291,153
292,153 295,125 304,139 315,42
316,14 319,630 320,208 321,319
322,55
##END=
