##TITLE=Idoxuridine
##JCAMP-DX=4.24
##DATA TYPE=MASS SPECTRUM
##ORIGIN=RADIAN CORP
##OWNER=NIST Mass Spectrometry Data Center
Collection (C) 2014 copyright by the U.S. Secretary of Commerce
on behalf of the United States of America. All rights reserved.
##CAS REGISTRY NO=54-42-2
##$NIST MASS SPEC NO=76466
##MOLFORM=C9 H11 I N2 O5
##MW=354
##$NIST SOURCE=MSDC
##XUNITS=M/Z
##YUNITS=RELATIVE INTENSITY
##XFACTOR=1
##YFACTOR=1
##FIRSTX=15
##LASTX=355
##FIRSTY=50
##MAXX=355
##MINX=15
##MAXY=9999
##MINY=10
##NPOINTS=183
##PEAK TABLE=(XY..XY)
15,50 16,10 25,20 26,90
27,410 28,500 29,880 30,100
31,920 32,20 36,20 37,60
38,190 39,630 40,660 41,960
42,750 43,2230 44,810 45,1640
46,50 47,130 48,20 49,20
50,70 51,130 52,220 53,1340
54,400 55,720 56,160 57,720
58,100 59,50 60,130 61,120
63,10 64,20 65,50 66,140
67,600 68,540 69,1320 70,670
71,1360 72,180 73,2530 74,120
75,90 76,20 77,20 78,60
79,110 80,100 81,840 82,160
83,110 84,120 85,310 86,70
87,120 88,20 91,70 92,40
93,80 94,230 95,340 96,270
97,800 98,1100 99,1960 100,130
101,40 103,10 104,30 105,110
106,60 107,120 108,50 109,70
110,60 111,190 112,780 113,160
114,40 115,230 116,180 117,9999
118,630 119,150 120,90 121,60
122,60 123,50 124,40 125,30
127,1310 128,160 129,60 130,20
131,50 132,10 133,50 134,30
135,80 136,40 137,60 139,520
140,450 141,60 142,40 143,60
144,20 145,70 146,30 147,110
148,20 149,60 151,20 152,1230
153,150 154,60 155,70 156,10
157,20 158,10 159,30 160,20
161,30 163,20 165,130 166,610
167,330 168,1630 169,60 170,20
171,20 173,20 178,50 179,40
180,40 181,70 182,40 185,10
190,40 191,10 192,50 193,70
194,160 195,2340 196,220 197,40
199,10 206,30 207,10 208,100
209,20 210,10 213,20 221,120
222,520 223,40 224,10 234,90
238,3540 239,860 240,80 247,20
250,20 251,10 254,130 255,10
262,110 263,10 264,30 265,90
266,60 268,30 293,10 311,30
318,20 354,240 355,30
##END=
