##TITLE=Pipobroman
##JCAMP-DX=4.24
##DATA TYPE=MASS SPECTRUM
##ORIGIN=Patti Price, Georgia Bureau of Investigation, Decatur, Georgia
##OWNER=NIST Mass Spectrometry Data Center
Collection (C) 2014 copyright by the U.S. Secretary of Commerce
on behalf of the United States of America. All rights reserved.
##CAS REGISTRY NO=54-91-1
##$NIST MASS SPEC NO=248116
##MOLFORM=C10 H16 Br2 N2 O2
##MW=354
##$NIST SOURCE=MSDC
##XUNITS=M/Z
##YUNITS=RELATIVE INTENSITY
##XFACTOR=1
##YFACTOR=1
##FIRSTX=39
##LASTX=359
##FIRSTY=70
##MAXX=359
##MINX=39
##MAXY=9999
##MINY=10
##NPOINTS=126
##PEAK TABLE=(XY..XY)
39,70 40,90 41,520 42,2101
43,1441 44,1901 45,170 53,100
54,650 55,3883 56,8357 57,1531
58,1020 60,10 62,20 63,120
65,40 67,50 68,530 69,7526
70,1121 71,210 72,50 73,50
79,130 80,180 81,230 82,290
83,430 84,550 85,9999 86,710
87,150 91,50 92,10 93,120
94,20 95,120 96,80 97,80
98,850 99,140 105,70 106,90
107,5615 108,200 109,5254 110,210
111,100 112,1421 113,1901 114,320
115,10 117,10 119,10 121,70
123,610 124,140 127,80 133,80
135,1531 136,70 137,1261 138,50
139,120 141,380 142,40 149,170
150,130 152,70 154,70 162,40
164,160 165,90 166,180 167,150
168,80 176,40 177,620 178,900
179,660 180,830 181,40 190,130
191,90 192,170 193,90 194,80
195,160 202,50 203,1861 204,250
205,1811 206,260 207,170 218,20
219,890 220,230 221,950 222,230
223,160 232,20 233,10 247,1631
248,160 249,1511 250,160 263,40
275,2201 276,220 277,2151 278,260
279,20 286,10 288,30 339,360
340,20 341,740 342,70 343,350
354,180 355,20 356,350 357,50
358,170 359,10
##END=
