##TITLE=Cantharidin
##JCAMP-DX=4.24
##DATA TYPE=MASS SPECTRUM
##ORIGIN=Chemical Concepts
##OWNER=NIST Mass Spectrometry Data Center
Collection (C) 2014 copyright by the U.S. Secretary of Commerce
on behalf of the United States of America. All rights reserved.
##CAS REGISTRY NO=56-25-7
##$NIST MASS SPEC NO=220895
##MOLFORM=C10 H12 O4
##MW=196
##$NIST SOURCE=MSDC
##XUNITS=M/Z
##YUNITS=RELATIVE INTENSITY
##XFACTOR=1
##YFACTOR=1
##FIRSTX=26
##LASTX=196
##FIRSTY=580
##MAXX=196
##MINX=26
##MAXY=9999
##MINY=30
##NPOINTS=96
##PEAK TABLE=(XY..XY)
26,580 27,4250 28,730 29,1820
30,60 31,110 37,110 38,390
39,4970 40,910 41,4760 42,2820
43,1180 44,230 45,90 46,30
47,30 49,50 50,410 51,1030
52,540 53,2320 54,560 55,1190
56,200 57,90 58,40 60,30
61,60 62,100 63,250 64,60
65,810 66,440 67,3320 68,2000
69,1410 70,4060 71,210 72,30
74,40 75,40 76,30 77,980
78,210 79,1720 80,420 81,2140
82,670 83,230 84,70 85,150
90,30 91,400 92,50 93,290
94,170 95,2000 96,9999 97,1080
98,100 99,160 100,1230 101,90
103,30 105,90 106,40 107,300
108,120 109,1550 110,900 111,220
112,310 113,40 121,60 122,110
123,340 124,510 125,550 126,80
127,320 128,8809 129,630 130,90
135,80 137,30 139,40 140,50
149,30 150,40 151,40 153,50
163,40 168,30 181,40 196,50
##END=
