##TITLE=Hexobarbital
##JCAMP-DX=4.24
##DATA TYPE=MASS SPECTRUM
##ORIGIN=Humboldt-Universitat zu Berlin, Department of Chemistry, Analytical Group
##OWNER=NIST Mass Spectrometry Data Center
Collection (C) 2014 copyright by the U.S. Secretary of Commerce
on behalf of the United States of America. All rights reserved.
##CAS REGISTRY NO=56-29-1
##$NIST MASS SPEC NO=286633
##MOLFORM=C12 H16 N2 O3
##MW=236
##$NIST SOURCE=MSDC
##XUNITS=M/Z
##YUNITS=RELATIVE INTENSITY
##XFACTOR=1
##YFACTOR=1
##FIRSTX=12
##LASTX=238
##FIRSTY=41
##MAXX=238
##MINX=12
##MAXY=9999
##MINY=10
##NPOINTS=152
##PEAK TABLE=(XY..XY)
12,41 14,41 15,676 16,71
17,117 18,259 26,254 27,2119
28,1331 29,1275 30,295 31,183
32,56 37,61 38,142 39,3038
40,671 41,2805 42,721 43,574
44,584 45,107 50,381 51,1275
52,1067 53,2205 54,533 55,1036
56,772 57,432 58,904 59,46
62,86 63,401 64,142 65,1743
66,737 67,1748 68,320 69,163
70,376 71,300 72,76 73,36
74,46 75,91 77,2967 78,737
79,5020 80,3404 81,6869 82,615
83,737 84,208 85,188 86,71
89,117 90,71 91,2703 92,432
93,1677 94,589 95,427 96,340
97,66 98,335 99,208 100,300
101,46 102,51 103,239 104,122
105,559 106,335 107,671 108,1433
109,269 110,183 111,56 112,305
113,188 114,97 115,61 116,51
117,122 118,168 119,183 120,142
121,625 122,569 123,1133 124,203
125,41 126,41 127,76 128,391
129,198 130,61 131,25 132,137
133,152 134,290 135,417 136,716
137,462 138,61 139,36 140,97
141,46 143,41 145,25 146,112
147,473 148,122 149,122 150,356
151,544 152,81 153,61 155,3282
156,899 157,3689 158,239 159,41
160,41 162,46 163,30 164,457
165,269 166,25 167,41 177,30
178,325 179,102 180,30 190,56
191,30 192,36 193,234 194,30
203,25 207,20 208,41 217,36
218,36 219,41 221,9999 222,1219
223,142 236,615 237,91 238,10
##END=
