##TITLE=Distannoxane, hexabutyl-
##JCAMP-DX=4.24
##DATA TYPE=MASS SPECTRUM
##ORIGIN=Japan AIST/NIMC Database- Spectrum MS-IW- 409
##OWNER=NIST Mass Spectrometry Data Center
Collection (C) 2014 copyright by the U.S. Secretary of Commerce
on behalf of the United States of America. All rights reserved.
##CAS REGISTRY NO=56-35-9
##$NIST MASS SPEC NO=233065
##MOLFORM=C24 H54 O Sn2
##MW=598
##$NIST SOURCE=MSDC
##XUNITS=M/Z
##YUNITS=RELATIVE INTENSITY
##XFACTOR=1
##YFACTOR=1
##FIRSTX=26
##LASTX=600
##FIRSTY=249
##MAXX=600
##MINX=26
##MAXY=9999
##MINY=30
##NPOINTS=322
##PEAK TABLE=(XY..XY)
26,249 27,1279 28,1209 29,3129
30,80 37,109 38,189 39,1979
40,459 41,6169 42,729 43,569
49,80 50,299 51,249 52,80
53,379 54,189 55,1359 56,3019
57,3479 58,269 69,40 71,40
83,30 85,40 113,50 115,70
116,299 117,919 118,899 119,1909
120,1359 121,2379 122,339 123,1189
124,119 125,439 127,169 129,40
131,109 132,99 133,609 134,329
135,1009 136,329 137,1109 139,219
141,219 143,60 145,189 146,90
147,289 148,99 149,279 151,99
153,60 163,30 169,90 171,399
172,119 173,1519 174,1019 175,6349
176,3439 177,9789 178,3269 179,9999
180,509 181,1869 182,179 183,1789
184,149 185,70 187,50 189,60
190,60 191,329 192,189 193,539
194,209 195,589 196,40 197,129
199,129 201,60 203,50 205,70
207,40 209,80 210,70 211,159
212,99 213,209 214,70 215,60
217,40 226,60 227,209 228,60
229,319 230,759 231,3299 232,2729
233,5289 234,3239 235,6129 236,779
237,1009 238,559 239,1759 240,1489
241,1489 242,1139 243,639 244,329
245,169 246,99 247,2079 248,1349
249,3709 250,1649 251,5029 252,2649
253,6549 254,3759 255,7149 256,2899
257,5989 258,1029 259,2759 260,489
261,1699 262,90 263,419 264,60
265,239 266,99 267,209 268,119
269,209 270,90 271,139 272,40
273,80 275,50 277,60 278,40
279,80 280,50 281,99 282,50
283,90 284,40 285,70 286,50
287,579 288,399 289,1039 290,499
291,1309 292,239 293,209 294,50
295,219 296,50 297,50 299,50
301,50 303,109 304,60 305,229
306,159 307,859 308,699 309,2169
310,1649 311,4099 312,2319 313,4329
314,1619 315,3329 316,559 317,1409
318,329 319,949 320,109 321,199
322,40 323,169 324,80 325,109
326,80 327,129 328,50 329,70
331,50 333,40 335,50 336,40
337,70 338,50 339,70 340,50
341,70 342,30 343,30 345,40
349,40 351,50 352,40 353,70
354,50 355,70 357,60 359,139
360,90 361,249 362,149 363,839
364,709 365,2089 366,1789 367,4309
368,2689 369,4669 370,2099 371,3849
372,869 373,1619 374,439 375,1119
376,209 377,299 379,209 380,30
381,99 382,99 383,90 384,149
385,80 386,30 389,40 395,50
397,40 406,50 409,80 410,50
411,50 413,40 415,70 417,189
418,70 419,519 420,479 421,1439
422,1269 423,2959 424,2249 425,4129
426,2349 427,3829 428,1509 429,2449
430,769 431,1299 432,469 433,749
435,80 438,40 473,249 474,90
475,429 476,349 477,1439 478,1399
479,3639 480,3319 481,7199 482,4949
483,7779 484,3739 485,6099 486,1759
487,2409 488,859 489,1689 490,329
491,299 493,199 497,60 499,60
529,279 530,80 531,519 532,209
533,1809 534,1819 535,4479 536,4259
537,9109 538,6449 539,9939 540,5069
541,7599 542,2439 543,3009 544,1079
545,1919 546,409 547,279 548,60
549,159 550,40 592,40 593,50
594,99 595,80 596,99 597,70
598,90 600,30
##END=
